! Created with skrf 1.10.0 (http://scikit-rf.org).
# Hz S RI R 50.0 
!freq ReS11 ImS11
!
7000000000.0 -0.00510904798284173 0.010875348001718521
7001250000.0 0.0037864320911467075 0.012939865700900555
7002500000.0 0.008099460043013096 0.008246872574090958
7003750000.0 0.010649627074599266 0.0025748061016201973
7005000000.0 0.011018474586308002 -0.005123869515955448
7006250000.0 0.007677088957279921 -0.009266667999327183
7007500000.0 -0.001874082488939166 -0.0109504833817482
7008750000.0 -0.010084915906190872 -0.007548909168690443
7010000000.0 -0.011357511393725872 -0.0004475238674785942
7011250000.0 -0.011587440967559814 0.007239846978336573
7012500000.0 -0.005328919738531113 0.010744797065854073
7013750000.0 0.002884897403419018 0.01014250423759222
7015000000.0 0.022695381194353104 0.008704658597707748
7016250000.0 -0.0007060061325319111 0.003120012814179063
7017500000.0 0.003979002591222525 0.0013813469558954239
7018750000.0 0.003962765913456678 -0.0018545968923717737
7020000000.0 0.0028132740408182144 -0.003543778555467725
7021250000.0 -0.0004988462314940989 -0.00452070077881217
7022500000.0 -0.001826822990551591 -0.004433771595358849
7023750000.0 -0.0047426987439394 -0.002704694401472807
7025000000.0 -0.005369529128074646 5.828092253068462e-05
7026250000.0 -0.004576071165502071 0.0032284038607031107
7027500000.0 -0.0010971617884933949 0.005929210688918829
7028750000.0 0.0005437259096652269 0.005301955621689558
7030000000.0 0.002986815059557557 0.005815537646412849
7031250000.0 0.005408021155744791 0.0022056649904698133
7032500000.0 0.005328840110450983 -0.0013601325917989016
7033750000.0 0.0039911456406116486 -0.004146567080169916
7035000000.0 0.002701458754017949 -0.005976210348308086
7036250000.0 -0.0019949444103986025 -0.0060742078348994255
7037500000.0 -0.004798465874046087 -0.00450718030333519
7038750000.0 -0.007564061786979437 -0.000840533699374646
7040000000.0 -0.005671644117683172 0.0026676824782043695
7041250000.0 -0.006407818756997585 0.006615201476961374
7042500000.0 9.79377655312419e-05 0.009239349514245987
7043750000.0 0.0036078565753996372 0.008297459222376347
7045000000.0 0.006931012962013483 0.005245462525635958
7046250000.0 0.010372054763138294 0.0005211439565755427
7047500000.0 0.00875063892453909 -0.004922710824757814
7048750000.0 0.0037792944349348545 -0.009066049009561539
7050000000.0 -0.003139297477900982 -0.011276332661509514
7051250000.0 -0.010342088527977467 -0.008113063871860504
7052500000.0 -0.013375368900597095 -0.001023508608341217
7053750000.0 -0.012077136896550655 0.0056000566110014915
7055000000.0 -0.006561141461133957 0.013859066180884838
7056250000.0 0.003893073881044984 0.013580435886979103
7057500000.0 0.014770099893212318 0.009320282377302647
7058750000.0 0.015657277777791023 -0.0012979099992662668
7060000000.0 0.012187771499156952 -0.007981603965163231
7061250000.0 0.005158446729183197 -0.012646088376641273
7062500000.0 -0.0025450680404901505 -0.014969062991440296
7063750000.0 -0.012133607640862465 -0.009730306454002857
7065000000.0 -0.01567966863512993 0.0020493108313530684
7066250000.0 -0.01043455209583044 0.010868464596569538
7067500000.0 -0.0016818188596516848 0.01213932316750288
7068750000.0 0.005392889026552439 0.01045360416173935
7070000000.0 0.010133477859199047 0.005531995091587305
7071250000.0 0.007706628646701574 -0.0006443822057917714
7072500000.0 0.005398608278483152 -0.00473896786570549
7073750000.0 0.00235642003826797 -0.004619750194251537
7075000000.0 0.0009662611410021782 -0.00832731369882822
7076250000.0 -0.0022343462333083153 -0.0055291238240897655
7077500000.0 -0.0034569778945297003 -0.0025215588975697756
7078750000.0 -0.006391402333974838 -0.0006183892255648971
7080000000.0 -0.005030288361012936 0.003995171282440424
7081250000.0 -0.002427096012979746 0.005121773574501276
7082500000.0 -0.0005713434657081962 0.006769424770027399
7083750000.0 0.002822711830958724 0.0051233889535069466
7085000000.0 0.005585711915045977 0.0027766257990151644
7086250000.0 0.007688543293625116 -0.001394294435158372
7087500000.0 0.004642457701265812 -0.004152272827923298
7088750000.0 0.003520561382174492 -0.006312103010714054
7090000000.0 -0.0012069171061739326 -0.0075418539345264435
7091250000.0 -0.005472038872539997 -0.0038333681877702475
7092500000.0 -0.007068843115121126 -0.003695086110383272
7093750000.0 -0.007417656946927309 0.0014457752695307136
7095000000.0 -0.004845728166401386 0.006646681111305952
7096250000.0 -0.001835161936469376 0.007213573902845383
7097500000.0 0.001985647017136216 0.00700255436822772
7098750000.0 0.008115817792713642 0.004730528220534325
7100000000.0 0.008739019744098186 0.0005262364284135401
7101250000.0 0.00964195653796196 -0.005277783144265413
7102500000.0 0.003944717813283205 -0.009542261250317097
7103750000.0 -0.0019827354699373245 -0.012284507974982262
7105000000.0 -0.007215137127786875 -0.009012778289616108
7106250000.0 -0.01122245006263256 -0.0024289994034916162
7107500000.0 -0.011058926582336426 0.005399932619184256
7108750000.0 -0.0054806433618068695 0.011033179238438606
7110000000.0 -0.0008179111173376441 0.012081894092261791
7111250000.0 0.009207555092871189 0.010368416085839272
7112500000.0 0.01304323598742485 0.0015217007603496313
7113750000.0 0.012022706679999828 -0.0054955449886620045
7115000000.0 0.0043985676020383835 -0.010866530239582062
7116250000.0 -0.00021399572142399848 -0.012931881472468376
7117500000.0 -0.007703807204961777 -0.00836856011301279
7118750000.0 -0.012264658696949482 -0.002468828810378909
7120000000.0 -0.010350581258535385 0.0036188841331750154
7121250000.0 -0.00710444338619709 0.008905710652470589
7122500000.0 -0.001101591275073588 0.012995813973248005
7123750000.0 0.007407561410218477 0.007571652997285128
7125000000.0 0.009854006581008434 0.004141984041780233
7126250000.0 0.009528610855340958 -0.002651844173669815
7127500000.0 0.006386102642863989 -0.006064248736947775
7128750000.0 0.001935654552653432 -0.008527864702045918
7130000000.0 -0.0011747912503778934 -0.007809150964021683
7131250000.0 -0.0057464162819087505 -0.004518711473792791
7132500000.0 -0.008636298589408398 -0.0006948588998056948
7133750000.0 -0.007573063485324383 0.002832092111930251
7135000000.0 -0.003139717970043421 0.008156790398061275
7136250000.0 0.0020687677897512913 0.004490972030907869
7137500000.0 0.004821080714464188 0.004981421399861574
7138750000.0 0.006187468767166138 0.0019898726604878902
7140000000.0 0.007958187721669674 -0.0001627885940251872
7141250000.0 0.004729723557829857 -0.0020260994788259268
7142500000.0 0.002039934042841196 -0.005254602525383234
7143750000.0 -0.00019928551046177745 -0.006256024353206158
7145000000.0 -0.0041990214958786964 -0.004511830396950245
7146250000.0 -0.00407544057816267 -0.002679000608623028
7147500000.0 -0.0058242143131792545 0.00022092500876169652
7148750000.0 -0.005435120314359665 0.004090127069503069
7150000000.0 -0.0016790773952379823 0.007158813998103142
7151250000.0 0.0011414701584726572 0.006199214607477188
7152500000.0 0.0063874926418066025 0.005942182149738073
7153750000.0 0.006889325566589832 0.0016557697672396898
7155000000.0 0.0063466099090874195 -0.0031798097770661116
7156250000.0 0.0026775330770760775 -0.008168896660208702
7157500000.0 -0.0011128331534564495 -0.0088652940467
7158750000.0 -0.005788307171314955 -0.0074180676601827145
7160000000.0 -0.008551429025828838 -0.003407061565667391
7161250000.0 -0.007844743318855762 0.0025050449185073376
7162500000.0 -0.005077008157968521 0.006427011452615261
7163750000.0 -0.0005166258779354393 0.006648702081292868
7165000000.0 0.004609854891896248 0.006793417036533356
7166250000.0 0.007823158986866474 0.004516386426985264
7167500000.0 0.008326053619384766 -0.0006116714794188738
7168750000.0 0.005226972978562117 -0.006344713270664215
7170000000.0 -0.0005272083217278123 -0.00861953105777502
7171250000.0 -0.0032544059213250875 -0.007693891879171133
7172500000.0 -0.005328520201146603 -0.004518925677984953
7173750000.0 -0.006613075267523527 -0.0010410785907879472
7175000000.0 -0.004296164959669113 0.0024327144492417574
7176250000.0 -0.0039077820256352425 0.00551975890994072
7177500000.0 -0.000370568479411304 0.005899978801608086
7178750000.0 0.002799819689244032 0.00583564443513751
7180000000.0 0.007236615289002657 0.0023879872169345617
7181250000.0 0.005312956869602203 -0.002231476828455925
7182500000.0 0.004316977225244045 -0.0027156651485711336
7183750000.0 0.0010723344748839736 -0.006003334186971188
7185000000.0 0.00011545341840246692 -0.005939241033047438
7186250000.0 -0.00363395013846457 -0.004982778802514076
7187500000.0 -0.0060302927158772945 -0.0024155229330062866
7188750000.0 -0.006413429044187069 0.001934847328811884
7190000000.0 -0.004743828903883696 0.00422357814386487
7191250000.0 -0.0006441740551963449 0.006140074692666531
7192500000.0 0.0021610455587506294 0.004355727229267359
7193750000.0 0.00400968175381422 0.003992415498942137
7195000000.0 0.00541693577542901 0.0016946725081652403
7196250000.0 0.005760740488767624 -0.0029622993897646666
7197500000.0 0.004072234034538269 -0.005412358790636063
7198750000.0 0.0028288671746850014 -0.00651503773406148
7200000000.0 -0.0039276257157325745 -0.005631284788250923
7201250000.0 -0.00702718086540699 -0.004211941733956337
7202500000.0 -0.0072356658056378365 -0.0012575455475598574
7203750000.0 -0.005899802315980196 0.003868308151140809
7205000000.0 -0.0031419580336660147 0.008204769343137741
7206250000.0 0.0008662634645588696 0.006714766379445791
7207500000.0 0.004504103679209948 0.008348102681338787
7208750000.0 0.007931034080684185 0.004773670341819525
7210000000.0 0.010214300826191902 -0.001621744828298688
7211250000.0 0.008957378566265106 -0.007003721781075001
7212500000.0 0.0021881689317524433 -0.012146241031587124
7213750000.0 -0.006881409324705601 -0.011734859086573124
7215000000.0 -0.012608975172042847 -0.007660969160497189
7216250000.0 -0.01594579592347145 0.002469135681167245
7217500000.0 -0.012353415600955486 0.011774462647736073
7218750000.0 -0.0034001986496150494 0.01725817658007145
7220000000.0 0.010311093181371689 0.01468164287507534
7221250000.0 0.018424948677420616 0.004858355037868023
7222500000.0 0.017300816252827644 -0.006849741097539663
7223750000.0 0.007734367623925209 -0.015022843144834042
7225000000.0 -0.0028098595794290304 -0.016767147928476334
7226250000.0 -0.011325865983963013 -0.009136401116847992
7227500000.0 -0.013863123953342438 -4.7103829274419695e-05
7228750000.0 -0.011476777493953705 0.007072879001498222
7230000000.0 -0.003251652466133237 0.010233455337584019
7231250000.0 0.002670690882951021 0.00947165209800005
7232500000.0 0.0066051543690264225 0.005876157898455858
7233750000.0 0.00796354841440916 0.0028611868619918823
7235000000.0 0.008487140759825706 -0.0036882057320326567
7236250000.0 0.0034836805425584316 -0.006323659792542458
7237500000.0 0.0020674304105341434 -0.006194597110152245
7238750000.0 -0.0008867001160979271 -0.006331458222121
7240000000.0 -0.004358444828540087 -0.005695198196917772
7241250000.0 -0.005915009416639805 -0.002792645711451769
7242500000.0 -0.005562755279242992 0.002052272204309702
7243750000.0 -0.005972080398350954 0.003888731123879552
7245000000.0 -0.0017044380074366927 0.006911761127412319
7246250000.0 0.001863101846538484 0.006977533455938101
7247500000.0 0.005209427792578936 0.003078499576076865
7248750000.0 0.006354524753987789 0.0013968455605208874
7250000000.0 0.006339151877909899 -0.0011251171818003058
7251250000.0 0.005607452243566513 -0.00413469597697258
7252500000.0 0.0018689199350774288 -0.005831628572195768
7253750000.0 -0.002172676380723715 -0.006124608684331179
7255000000.0 -0.005001146346330643 -0.0040593938902020454
7256250000.0 -0.0073244767263531685 -0.0018386655719950795
7257500000.0 -0.007557522971183062 0.002242074813693762
7258750000.0 -0.003309764200821519 0.006445011124014854
7260000000.0 -0.0010792510583996773 0.008448955602943897
7261250000.0 0.002908900612965226 0.007859187200665474
7262500000.0 0.0066513195633888245 0.004933374933898449
7263750000.0 0.010614677332341671 0.0010534782195463777
7265000000.0 0.009382152929902077 -0.0038708974607288837
7266250000.0 0.005809886381030083 -0.009295045398175716
7267500000.0 -0.0001308341306867078 -0.012735186144709587
7268750000.0 -0.009014710783958435 -0.010108024813234806
7270000000.0 -0.01568748988211155 -0.0035650795325636864
7271250000.0 -0.016144543886184692 0.00800272636115551
7272500000.0 -0.008798932656645775 0.019077520817518234
7273750000.0 0.005863823927938938 0.01786372810602188
7275000000.0 0.01672806218266487 0.010233817622065544
7276250000.0 0.016700610518455505 -0.0034629488363862038
7277500000.0 0.01105957105755806 -0.013067630119621754
7278750000.0 0.001373541890643537 -0.016918448731303215
7280000000.0 -0.008685143664479256 -0.013445526361465454
7281250000.0 -0.011312251910567284 -0.006077691446989775
7282500000.0 -0.012011699378490448 0.0018542087636888027
7283750000.0 -0.00825554970651865 0.008173310197889805
7285000000.0 -0.003591417334973812 0.01017619390040636
7286250000.0 0.0031347740441560745 0.009886641055345535
7287500000.0 0.009970015846192837 0.004919018596410751
7288750000.0 0.01062952820211649 0.000636498793028295
7290000000.0 0.008168566972017288 -0.004925218876451254
7291250000.0 0.004377211909741163 -0.007189177442342043
7292500000.0 -0.0015803005080670118 -0.009665369056165218
7293750000.0 -0.0024361780378967524 -0.00593807827681303
7295000000.0 -0.00695066899061203 -0.003371371189132333
7296250000.0 -0.008022612892091274 0.00016820333257783204
7297500000.0 -0.004906469956040382 0.004055297467857599
7298750000.0 -0.001996896928176284 0.007241703104227781
7300000000.0 0.001678049797192216 0.008806359954178333
7301250000.0 0.003568215761333704 0.004263466224074364
7302500000.0 0.006137731485068798 0.0013979942305013537
7303750000.0 0.005868384148925543 -0.0009198453044518828
7305000000.0 0.00603413674980402 -0.005895837675780058
7306250000.0 0.0019509214907884598 -0.00665008369833231
7307500000.0 -0.003231270704418421 -0.005044443998485804
7308750000.0 -0.004189886152744293 -0.005546866450458765
7310000000.0 -0.007580286357551813 -0.002112539019435644
7311250000.0 -0.00644352613016963 0.003537470940500498
7312500000.0 -0.004066635854542255 0.007165583781898022
7313750000.0 0.0006324696005322039 0.007306568790227175
7315000000.0 0.002681683748960495 0.00578677374869585
7316250000.0 0.006239741574972868 0.003655408276244998
7317500000.0 0.007812928408384323 0.0009253377211280167
7318750000.0 0.006571431644260883 -0.0025757986586540937
7320000000.0 0.0031659244559705257 -0.007216239348053932
7321250000.0 -0.0003247133281547576 -0.009171404875814915
7322500000.0 -0.006397291086614132 -0.005571079906076193
7323750000.0 -0.008509807288646698 -0.0007391763501800597
7325000000.0 -0.01004016026854515 0.003543723141774535
7326250000.0 -0.00545821338891983 0.007008921820670366
7327500000.0 -0.001707322197034955 0.010477667674422264
7328750000.0 0.0050168526358902454 0.009377369657158852
7330000000.0 0.00903909932821989 0.004837619606405497
7331250000.0 0.009930580854415894 -0.0022066819947212934
7332500000.0 0.007186088711023331 -0.007399467751383781
7333750000.0 0.0033145546913146973 -0.009745658375322819
7335000000.0 -0.005332454573363066 -0.00965756457298994
7336250000.0 -0.010213530622422695 -0.005775829777121544
7337500000.0 -0.010439978912472725 0.0001457400358049199
7338750000.0 -0.009125052019953728 0.006441145669668913
7340000000.0 -0.004424967337399721 0.008431673981249332
7341250000.0 0.0008478703093715012 0.010080831125378609
7342500000.0 0.0073561775498092175 0.006746827159076929
7343750000.0 0.010631676763296127 0.001188774243928492
7345000000.0 0.008389994502067566 -0.0024302590172737837
7346250000.0 0.004307379946112633 -0.007337389048188925
7347500000.0 0.001865552389062941 -0.008615288883447647
7348750000.0 -0.0036809612065553665 -0.007579424884170294
7350000000.0 -0.004790590610355139 -0.005776265170425177
7351250000.0 -0.010201400145888329 -0.0012452275259420276
7352500000.0 -0.008613577112555504 0.0039243437349796295
7353750000.0 -0.00560125382617116 0.009595480747520924
7355000000.0 0.0013663761783391237 0.010790730826556683
7356250000.0 0.0060654557310044765 0.009268338792026043
7357500000.0 0.009770226664841175 0.0010155136696994305
7358750000.0 0.010430388152599335 -0.002830204553902149
7360000000.0 0.009040499106049538 -0.00722297141328454
7361250000.0 0.00477410526946187 -0.013093199580907822
7362500000.0 -0.003830191446468234 -0.012209814973175526
7363750000.0 -0.009443908929824829 -0.008383214473724365
7365000000.0 -0.013253312557935715 -0.0011444869451224804
7366250000.0 -0.013476204127073288 0.006136516109108925
7367500000.0 -0.007772487122565508 0.01354555506259203
7368750000.0 0.0016489917179569602 0.012524444609880447
7370000000.0 0.009831043891608715 0.011933250352740288
7371250000.0 0.01675235852599144 0.005405505187809467
7372500000.0 0.01817282661795616 -0.005275142844766378
7373750000.0 0.01237262599170208 -0.01412566751241684
7375000000.0 0.0027051938232034445 -0.020663896575570107
7376250000.0 -0.009684000164270401 -0.01886112429201603
7377500000.0 -0.02313261479139328 -0.015332837589085102
7378750000.0 -0.033359646797180176 0.003166797338053584
7380000000.0 -0.02312791533768177 0.03556348755955696
7381250000.0 0.019472137093544006 0.04451218247413635
7382500000.0 0.049386363476514816 0.008026507683098316
7383750000.0 0.02744211256504059 -0.027351073920726776
7385000000.0 -0.0008911104523576796 -0.027363581582903862
7386250000.0 -0.014475257135927677 -0.01507566962391138
7387500000.0 -0.015360657125711441 -0.0031315155792981386
7388750000.0 -0.00985282938927412 0.002896808786317706
7390000000.0 -0.004743673373013735 0.007336050271987915
7391250000.0 -0.002696575364097953 0.005952301435172558
7392500000.0 0.0017725222278386354 0.005777575075626373
7393750000.0 0.0023417638149112463 0.004489219281822443
7395000000.0 0.004309845622628927 0.002152377739548683
7396250000.0 0.003950073383748531 -0.0004592754412442446
7397500000.0 0.004900526721030474 -0.0010246924357488751
7398750000.0 0.00229661725461483 -0.0026905646082013845
7400000000.0 0.0008379651117138565 -0.004612813703715801
7401250000.0 -0.0015761276008561254 -0.005155955441296101
7402500000.0 -0.004629624541848898 -0.0035377151798456907
7403750000.0 -0.003621900686994195 -0.0013008032692596316
7405000000.0 -0.0038880500942468643 0.0013556757476180792
7406250000.0 -0.00369352288544178 0.002054244512692094
7407500000.0 -0.0008554725791327655 0.0033881019335240126
7408750000.0 0.000800857727881521 0.0041876500472426414
7410000000.0 0.002487569348886609 0.004055193159729242
7411250000.0 0.004107213579118252 0.0014359249034896493
7412500000.0 0.004751156084239483 -0.001497248187661171
7413750000.0 0.0024319677613675594 -0.0030269946437329054
7415000000.0 0.0009568623499944806 -0.00405878247693181
7416250000.0 -0.00029756929143331945 -0.004835435654968023
7417500000.0 -0.0034650929737836123 -0.004613449797034264
7418750000.0 -0.005549844354391098 -0.0015337924705818295
7420000000.0 -0.004594890866428614 0.0007663137512281537
7421250000.0 -0.004548525903373957 0.003444029949605465
7422500000.0 -0.0018983740592375398 0.004178756847977638
7423750000.0 0.0012030309299007058 0.003842134727165103
7425000000.0 0.0035727580543607473 0.002288274234160781
7426250000.0 0.005882715340703726 0.001544515136629343
7427500000.0 0.0059980168007314205 -0.0013244610745459795
7428750000.0 0.005508210975676775 -0.004920645151287317
7430000000.0 0.0020411203149706125 -0.007241667713969946
7431250000.0 -0.0017360466299578547 -0.0077325571328401566
7432500000.0 -0.005183105822652578 -0.006589069962501526
7433750000.0 -0.009531492367386818 -0.0014852364547550678
7435000000.0 -0.008679140359163284 0.0036740750074386597
7436250000.0 -0.006768381223082542 0.008937814272940159
7437500000.0 -0.0006784891011193395 0.013684912584722042
7438750000.0 0.007994549348950386 0.011476322077214718
7440000000.0 0.0160665400326252 0.00738971121609211
7441250000.0 0.019146723672747612 -0.006346436217427254
7442500000.0 0.012982095591723919 -0.019621172919869423
7443750000.0 -0.00656540784984827 -0.024519948288798332
7445000000.0 -0.018404101952910423 -0.008888904005289078
7446250000.0 -0.01668548211455345 0.004407146014273167
7447500000.0 -0.010457226075232029 0.01447354070842266
7448750000.0 -0.0013294282834976912 0.014468420296907425
7450000000.0 0.003468404756858945 0.012825730256736279
7451250000.0 0.009773085825145245 0.013091236352920532
7452500000.0 0.02147887460887432 0.005335472524166107
7453750000.0 0.022171402350068092 -0.016689902171492577
7455000000.0 -0.002719943644478917 -0.02220713160932064
7456250000.0 -0.008645381778478622 -0.010030373930931091
7457500000.0 -0.009146220050752163 -0.0030992382671684027
7458750000.0 -0.009820173494517803 0.0019486257806420326
7460000000.0 -0.005131457466632128 0.006025135051459074
7461250000.0 -0.0024732446763664484 0.007870739325881004
7462500000.0 0.0008036756189540029 0.008254694752395153
7463750000.0 0.0054941545240581036 0.006562469527125359
7465000000.0 0.0071957726031541824 0.0025889708194881678
7466250000.0 0.009212582372128963 -0.0005502288695424795
7467500000.0 0.006212620064616203 -0.005094204563647509
7468750000.0 0.0032738714944571257 -0.007776683662086725
7470000000.0 -0.0021378181409090757 -0.008781769312918186
7471250000.0 -0.006416976917535067 -0.006308644078671932
7472500000.0 -0.009013946168124676 -0.0031705962028354406
7473750000.0 -0.009025397710502148 0.0024242529179900885
7475000000.0 -0.006770382635295391 0.007072798442095518
7476250000.0 -0.0020538298413157463 0.00998995266854763
7477500000.0 0.0036135949194431305 0.00987330637872219
7478750000.0 0.009299999102950096 0.005643341690301895
7480000000.0 0.011492053046822548 -0.0003054660919588059
7481250000.0 0.010500581003725529 -0.007079164031893015
7482500000.0 0.004809173289686441 -0.01263069361448288
7483750000.0 -0.003827068954706192 -0.013437209650874138
7485000000.0 -0.010992506518959999 -0.007997186854481697
7486250000.0 -0.014108659699559212 -0.0007283955928869545
7487500000.0 -0.01141059584915638 0.008022048510611057
7488750000.0 -0.004665491636842489 0.01301624346524477
7490000000.0 0.0029478315263986588 0.010879418812692165
7491250000.0 0.009932169690728188 0.008434267714619637
7492500000.0 0.011720242910087109 0.00016998196952044964
7493750000.0 0.01082084234803915 -0.005746413953602314
7495000000.0 0.003970385994762182 -0.010249814949929714
7496250000.0 -0.002005725633352995 -0.01029000524431467
7497500000.0 -0.007448457647114992 -0.007629642263054848
7498750000.0 -0.009346882812678814 -0.0019300079438835382
7500000000.0 -0.008892020210623741 0.003895744914188981
