! Created with skrf 1.10.0 (http://scikit-rf.org).
# Hz S RI R 50.0 
!freq ReS11 ImS11
!
4000000000.0 0.0027816961519420147 0.000585310161113739
4004000000.0 -0.0008402241510339081 -0.002991491463035345
4008000000.0 -0.002048523398116231 0.0018360116519033909
4012000000.0 0.002356474520638585 0.0014207737985998392
4016000000.0 0.000367510539945215 -0.002643006853759289
4020000000.0 -0.002685252344235778 0.0005215895944274962
4024000000.0 0.0015490262303501368 0.002200935035943985
4028000000.0 0.0015063268365338445 -0.00207326072268188
4032000000.0 -0.0023317185696214437 -0.00046460225712507963
4036000000.0 0.0002703517966438085 0.0024009791668504477
4040000000.0 0.0022574702743440866 -0.0013254779623821378
4044000000.0 -0.0021658288314938545 -0.0017560460837557912
4048000000.0 -0.0006976561271585524 0.0024818622041493654
4052000000.0 0.0028297812677919865 -0.00015080685261636972
4056000000.0 -0.0011803933884948492 -0.0022824190091341734
4060000000.0 -0.0018013393273577094 0.001989387907087803
4064000000.0 0.0026524777058511972 0.0009432390797883272
4068000000.0 -0.00020022853277623653 -0.002582818502560258
4072000000.0 -0.0025639464147388935 0.001159695559181273
4076000000.0 0.0022897596936672926 0.0019529411802068353
4080000000.0 0.0007418555906042457 -0.0025119222700595856
4084000000.0 -0.0025671401526778936 0.0003337936941534281
4088000000.0 0.0013014762662351131 0.0022840078454464674
4092000000.0 0.0014175543328747153 -0.0022077569738030434
4096000000.0 -0.002429638523608446 -0.0005582019803114235
4100000000.0 0.00024784798733890057 0.0021082365419715643
4104000000.0 0.0018202922074124217 -0.001034510089084506
4108000000.0 -0.0013690729392692447 -0.0013320452999323606
4112000000.0 -0.00043748083407990634 0.0016569920117035508
4116000000.0 0.0018751156749203801 0.00014429014117922634
4120000000.0 -0.0004956750781275332 -0.0014744639629498124
4124000000.0 -0.001289615873247385 0.0009132554987445474
4128000000.0 0.0012821544660255313 0.0009120147442445159
4132000000.0 0.0005861432873643935 -0.0016198448138311505
4136000000.0 -0.0015830788761377335 -2.970043169625569e-05
4140000000.0 0.0006840695277787745 0.0016974000027403235
4144000000.0 0.0013903826475143433 -0.0009910950902849436
4148000000.0 -0.0014014996122568846 -0.0009378123213537037
4152000000.0 -0.0005566038889810443 0.0017057080985978246
4156000000.0 0.00218473793938756 -0.00013512978330254555
4160000000.0 -0.0006732411566190422 -0.0018369101453572512
4164000000.0 -0.0014382356312125921 0.0012886733748018742
4168000000.0 0.001984989270567894 0.0007334193214774132
4172000000.0 -0.00017699347517918795 -0.0024119848385453224
4176000000.0 -0.0019257045350968838 0.0009175659506581724
4180000000.0 0.00126934633590281 0.00181002716999501
4184000000.0 0.000937800039537251 -0.002129501895979047
4188000000.0 -0.0019289382034912705 -0.0003333058557473123
4192000000.0 0.0005576859111897647 0.002121198223903775
4196000000.0 0.0019107646076008677 -0.0012042626040056348
4200000000.0 -0.0016280274139717221 -0.0013309484347701073
4204000000.0 -0.0007015752489678562 0.0024465054739266634
4208000000.0 0.0022569498978555202 -9.551085531711578e-05
4212000000.0 -0.0011002728715538979 -0.0021646565292030573
4216000000.0 -0.0017613292438909411 0.0018982453038915992
4220000000.0 0.0025531905703246593 0.001014708774164319
4224000000.0 2.3913607947179116e-05 -0.00266744545660913
4228000000.0 -0.002722932491451502 0.001538679818622768
4232000000.0 0.0022490876726806164 0.002500855131074786
4236000000.0 0.0012155405711382627 -0.0027360133826732635
4240000000.0 -0.003263972932472825 0.0002568616473581642
4244000000.0 0.0016468759858980775 0.003096522530540824
4248000000.0 0.002050061011686921 -0.0022384743206202984
4252000000.0 -0.0027781114913523197 -0.0010320834117010236
4256000000.0 0.0002986695326399058 0.0028916525188833475
4260000000.0 0.002474365523084998 -0.001242980593815446
4264000000.0 -0.002325437031686306 -0.0020995328668504953
4268000000.0 -0.0009414738160558045 0.0022406144998967648
4272000000.0 0.002876363229006529 -0.00023476703790947795
4276000000.0 -0.0011543151922523975 -0.0022432224359363317
4280000000.0 -0.0017873471369966865 0.0018128457013517618
4284000000.0 0.002298881532624364 0.001129238517023623
4288000000.0 0.00020723341731354594 -0.0025219412054866552
4292000000.0 -0.0020582235883921385 0.0006586065283045173
4296000000.0 0.0013752629747614264 0.0020280685275793076
4300000000.0 0.001181271392852068 -0.002319952705875039
4304000000.0 -0.0023941912222653627 -0.0002203968761023134
4308000000.0 0.0002831367019098252 0.0023989903274923563
4312000000.0 0.002067890949547291 -0.0008495345246046782
4316000000.0 -0.0012638227781280875 -0.0017015347257256508
4320000000.0 -0.0007954473840072751 0.0019519916968420148
4324000000.0 0.0023296994622796774 0.00024031563953030854
4328000000.0 -0.0006897820858284831 -0.0021269344724714756
4332000000.0 -0.00179064751137048 0.0015874349046498537
4336000000.0 0.001967694377526641 0.0005870608729310334
4340000000.0 0.0002614760596770793 -0.0023403235245496035
4344000000.0 -0.002164306351915002 0.0002948630426544696
4348000000.0 0.0009101795149035752 0.0019682515412569046
4352000000.0 0.0013046787353232503 -0.0016185262938961387
4356000000.0 -0.0020151303615421057 -0.00035988338640891016
4360000000.0 0.00020600046264007688 0.0020838987547904253
4364000000.0 0.0021219190675765276 -0.00039421909605152905
4368000000.0 -0.0010314368410035968 -0.0019110324792563915
4372000000.0 -0.001202659448608756 0.0020237767603248358
4376000000.0 0.0025529859121888876 0.0006368946633301675
4380000000.0 -0.00016876285371836275 -0.002044804161414504
4384000000.0 -0.0013724028831347823 0.0007876005256548524
4388000000.0 0.0014148940099403262 0.001271937508136034
4392000000.0 0.000887569913174957 -0.002257470041513443
4396000000.0 -0.0026416154578328133 0.00010423624189570546
4400000000.0 0.0006701236707158387 0.00260868389159441
4404000000.0 0.001778235542587936 -0.0016973146703094244
4408000000.0 -0.0024127967189997435 -0.0009290202287957072
4412000000.0 0.00031445277272723615 0.0027123517356812954
4416000000.0 0.002570248208940029 -0.0015637553296983242
4420000000.0 -0.0016265404410660267 -0.0015271591255441308
4424000000.0 -0.0005273449933156371 0.001931999810039997
4428000000.0 0.0023867031559348106 -0.00016425921057816595
4432000000.0 -0.0009364529978483915 -0.0020364613737910986
4436000000.0 -0.0016070519341155887 0.0015500863082706928
4440000000.0 0.0017566896276548505 0.0008080022525973618
4444000000.0 0.00036136817652732134 -0.0024226801469922066
4448000000.0 -0.0021087992936372757 0.0002845661947503686
4452000000.0 0.000993743073195219 0.001749793766066432
4456000000.0 0.0010144271655008197 -0.0018065597396343946
4460000000.0 -0.001966299954801798 -0.00012676660844590515
4464000000.0 0.00012582811177708209 0.0020714232232421637
4468000000.0 0.0016266361344605684 -0.0011117401299998164
4472000000.0 -0.0019830164965242147 -0.001161969150416553
4476000000.0 -0.00014934048522263765 0.0025180154480040073
4480000000.0 0.002509291749447584 -0.00028614644543267787
4484000000.0 -0.0014403430977836251 -0.0019249902106821537
4488000000.0 -0.000810608034953475 0.0021288013085722923
4492000000.0 0.002251772675663233 0.0001049069978762418
4496000000.0 -0.0009070824598893523 -0.0018497854471206665
4500000000.0 -0.0014184063766151667 0.0009819682454690337
4504000000.0 0.0014773844741284847 0.0010382338659837842
4508000000.0 0.0002625157649163157 -0.0016506867250427604
4512000000.0 -0.001625124947167933 0.0004405747167766094
4516000000.0 0.0006439283606596291 0.0012626389507204294
4520000000.0 0.0009262295789085329 -0.0012375165242701769
4524000000.0 -0.0012593748979270458 -0.0002157143026124686
4528000000.0 -3.98595911974553e-05 0.0014866895508021116
4532000000.0 0.001456955331377685 -0.0007404553471133113
4536000000.0 -0.0008598450222052634 -0.0011904691345989704
4540000000.0 -0.0007633052300661802 0.000784814590588212
4544000000.0 0.001466510584577918 0.0004941161605529487
4548000000.0 -0.00028536675381474197 -0.001164963934570551
4552000000.0 -0.001217092270962894 0.0005356385372579098
4556000000.0 0.0010459665209054947 0.001414493191987276
4560000000.0 0.0007906384998932481 -0.001746615394949913
4564000000.0 -0.0018738729413598776 2.7896694518858567e-05
4568000000.0 0.0006967104272916913 0.0014119402039796114
4572000000.0 0.0012115899007767439 -0.00128703482914716
4576000000.0 -0.0013425186043605208 -0.000901741033885628
4580000000.0 1.4024702068127226e-05 0.0021244841627776623
4584000000.0 0.0017216155538335443 -0.0001948128774529323
4588000000.0 -0.0010737167904153466 -0.0012781916884705424
4592000000.0 -0.0005448763840831816 0.0014988566981628537
4596000000.0 0.0019161656964570284 0.0003273682959843427
4600000000.0 -0.0003756613878067583 -0.00190503871999681
4604000000.0 -0.001467949477955699 0.0015230863355100155
4608000000.0 0.002026953035965562 0.001067113596946001
4612000000.0 0.000392197776818648 -0.001634411048144102
4616000000.0 -0.0019969819113612175 0.0004866227391175926
4620000000.0 0.0009930760134011507 0.001819937489926815
4624000000.0 0.0010748541681095958 -0.0015716092893853784
4628000000.0 -0.002235381631180644 -0.0005618236027657986
4632000000.0 0.000312579155433923 0.0020897164940834045
4636000000.0 0.002156944014132023 -0.0009401410352438688
4640000000.0 -0.0015690531581640244 -0.0009690197766758502
4644000000.0 -0.0004962722887285054 0.0023282929323613644
4648000000.0 0.0024162153713405132 -0.0006962781772017479
4652000000.0 -0.0011257387232035398 -0.0018292262684553862
4656000000.0 -0.0012258306378498673 0.0019024632638320327
4660000000.0 0.0021461041178554296 0.0003373268700670451
4664000000.0 -0.0003467944043222815 -0.0023668683134019375
4668000000.0 -0.0017112430650740862 0.0015310586895793676
4672000000.0 0.0017731518018990755 0.0011692352127283812
4676000000.0 0.0003054709522984922 -0.001903971191495657
4680000000.0 -0.0022113677114248276 0.0004581136454362422
4684000000.0 0.0007713194354437292 0.0014225010527297854
4688000000.0 0.0013319258578121662 -0.0012263350654393435
4692000000.0 -0.0016306259203702211 -0.0005693431594409049
4696000000.0 -0.0001322120224358514 0.0019896982703357935
4700000000.0 0.0019173348555341363 -0.0005279750912450254
4704000000.0 -0.0010649287141859531 -0.0013807398499920964
4708000000.0 -0.0009906174382194877 0.001483800122514367
4712000000.0 0.0017215698026120663 0.00017709749226924032
4716000000.0 -0.00024137280706781894 -0.0015968428924679756
4720000000.0 -0.0016341301379725337 0.0011576307006180286
4724000000.0 0.001747769769281149 0.0005803427193313837
4728000000.0 0.00029209768399596214 -0.0016105527756735682
4732000000.0 -0.0017176262335851789 0.0003236996999476105
4736000000.0 0.0010545544791966677 0.0013883208157494664
4740000000.0 0.0010580105008557439 -0.0012758260127156973
4744000000.0 -0.0018179327016696334 -0.0007102171657606959
4748000000.0 -7.899214688222855e-05 0.0018379741813987494
4752000000.0 0.0014397002523764968 -0.0004911339492537081
4756000000.0 -0.0009856680408120155 -0.0013402228942140937
4760000000.0 -0.0009952426189556718 0.0014933247584849596
4764000000.0 0.0015429159393534064 0.000542970432434231
4768000000.0 -0.00030416680965572596 -0.0017385241808369756
4772000000.0 -0.0013202886329963803 0.0009089931845664978
4776000000.0 0.0011918139643967152 0.0014852251624688506
4780000000.0 0.0005074501386843622 -0.0016938257031142712
4784000000.0 -0.0016363795148208737 6.597679748665541e-05
4788000000.0 0.0009377391543239355 0.0016857609152793884
4792000000.0 0.0014066101284697652 -0.0014007061254233122
4796000000.0 -0.0018590703839436173 -0.0006783067947253585
4800000000.0 -0.00012299155059736222 0.001886327052488923
4804000000.0 0.0022462967317551374 -0.0006278885412029922
4808000000.0 -0.0012495715636759996 -0.001791098969988525
4812000000.0 -0.0010395816061645746 0.0016633715713396668
4816000000.0 0.0024500361178070307 0.0001855301234172657
4820000000.0 -0.0005511952913366258 -0.0020936636719852686
4824000000.0 -0.0016979723004624248 0.0013276973040774465
4828000000.0 0.0019332783995196223 0.001460651052184403
4832000000.0 0.00035669561475515366 -0.00248399144038558
4836000000.0 -0.0024110462982207537 0.00028921180637553334
4840000000.0 0.0012842622818425298 0.002074236050248146
4844000000.0 0.0017218898283317685 -0.0017107428284361959
4848000000.0 -0.0025051357224583626 -0.0006614781450480223
4852000000.0 0.0006219928618520498 0.0023150804918259382
4856000000.0 0.0021336772479116917 -0.0009555267752148211
4860000000.0 -0.00186627428047359 -0.001435719314031303
4864000000.0 -0.0005659734597429633 0.0021043100859969854
4868000000.0 0.002529009710997343 -0.00025609793374314904
4872000000.0 -0.0013538528000935912 -0.0021344220731407404
4876000000.0 -0.0013986474368721247 0.001898222486488521
4880000000.0 0.002496561501175165 0.00024928004131652415
4884000000.0 -0.0005842417012900114 -0.002020214917138219
4888000000.0 -0.0016228697495535016 0.0012563590425997972
4892000000.0 0.001719027990475297 0.000968007545452565
4896000000.0 0.00027538876747712493 -0.0016890133265405893
4900000000.0 -0.001775957876816392 0.00012558730668388307
4904000000.0 0.0007712534861639142 0.0013590017333626747
4908000000.0 0.0008152378723025322 -0.0011845650151371956
4912000000.0 -0.0013539192732423544 -0.00044296603300608695
4916000000.0 -0.00016726565081626177 0.0010511112632229924
4920000000.0 0.0012469848152250051 -0.00041572866030037403
4924000000.0 -0.0007581268437206745 -0.0010687598260119557
4928000000.0 -0.000963654019869864 0.0006880449363961816
4932000000.0 0.00121203251183033 0.0005518925609067082
4936000000.0 9.10474918782711e-05 -0.0013312092050909996
4940000000.0 -0.0012612565187737346 0.00028793897945433855
4944000000.0 0.0007218270911835134 0.001124950940720737
4948000000.0 0.0009608825785107911 -0.0009436752297915518
4952000000.0 -0.0012084776535630226 -0.0005756312166340649
4956000000.0 -4.765845733345486e-05 0.001407539937645197
4960000000.0 0.0014690544921904802 -0.0005740036140196025
4964000000.0 -0.0009249414433725178 -0.0010665488662198186
4968000000.0 -0.000747552840039134 0.0013173302868381143
4972000000.0 0.0014694664860144258 0.0001444929075660184
4976000000.0 -0.0005939463153481483 -0.001459511579014361
4980000000.0 -0.0014282114570960402 0.0010700252605602145
4984000000.0 0.0015070057706907392 0.0009775804355740547
4988000000.0 0.00016266443708445877 -0.0015525432536378503
4992000000.0 -0.0015154884895309806 0.0003100643225479871
4996000000.0 0.000984672922641039 0.0014056888176128268
5000000000.0 0.000958785938564688 -0.0015539216110482812
5004000000.0 -0.001616366789676249 -0.00035877065965905786
5008000000.0 0.0003646802215371281 0.0014826249098405242
5012000000.0 0.0016475252341479063 -0.0008536534733138978
5016000000.0 -0.0016518833581358194 -0.0010882032802328467
5020000000.0 -0.0004850587865803391 0.001706002512946725
5024000000.0 0.0016789616784080863 -0.00032856789766810834
5028000000.0 -0.0009584340150468051 -0.0015790831530466676
5032000000.0 -0.0013904217630624771 0.0017351590795442462
5036000000.0 0.0020940550602972507 0.00035638612462207675
5040000000.0 -0.0006571502308361232 -0.0021081813611090183
5044000000.0 -0.0015943297185003757 0.0012503252364695072
5048000000.0 0.001983135472983122 0.0008747615502215922
5052000000.0 0.0001893648150144145 -0.0019742832519114017
5056000000.0 -0.002193484455347061 0.0005594968679361045
5060000000.0 0.0012293860781937838 0.0014997933758422732
5064000000.0 0.0007425351650454104 -0.0014381352812051773
5068000000.0 -0.0017503725830465555 -6.86736311763525e-05
5072000000.0 0.0006855760584585369 0.001384883071295917
5076000000.0 0.0012986293295398355 -0.0009909995133057237
5080000000.0 -0.0016809783410280943 -0.000758158159442246
5084000000.0 -0.00039388745790347457 0.0016820700839161873
5088000000.0 0.0009061011951416731 -1.5797604646650143e-05
5092000000.0 -0.0006979053723625839 -0.0011774525046348572
5096000000.0 -0.0010522281518206 0.0007468675612471998
5100000000.0 0.0011573343072086573 0.0002255147264804691
5104000000.0 -0.0001840337208705023 -0.0013981868978589773
5108000000.0 -0.0011732085840776563 0.000382566184271127
5112000000.0 0.0008261030307039618 0.001367962104268372
5116000000.0 0.0005029172170907259 -0.0012663094094023108
5120000000.0 -0.001502079889178276 -0.0001548354048281908
5124000000.0 0.0003048617800232023 0.001163427485153079
5128000000.0 0.0013856894802302122 -0.0007943823584355414
5132000000.0 -0.0013075106544420123 -0.0005869679152965546
5136000000.0 -0.00014837873459327966 0.001622942159883678
5140000000.0 0.0015536458231508732 -0.0005194394616410136
5144000000.0 -0.0007614011410623789 -0.0011481590336188674
5148000000.0 -0.00105052359867841 0.0012121564941480756
5152000000.0 0.0013675501104444265 0.00023684171901550144
5156000000.0 -0.0004360313178040087 -0.0012644927483052015
5160000000.0 -0.0012373647186905146 0.0007062013610266149
5164000000.0 0.0010529682040214539 0.0007457801839336753
5168000000.0 0.0009606307721696794 -0.0012485864572227001
5172000000.0 -0.001536413561552763 -0.00022649609309155494
5176000000.0 0.0005854910123161972 0.001524625695310533
5180000000.0 0.001249864581041038 -0.0007050387794151902
5184000000.0 -0.0010472539579495788 -0.0009626602404750884
5188000000.0 -0.0006409098859876394 0.0014063050039112568
5192000000.0 0.0015503920149058104 0.00015593312855344266
5196000000.0 -0.0009772838093340397 -0.0013337848940864205
5200000000.0 -0.0015225745737552643 0.0014010817976668477
5204000000.0 0.0017185292672365904 0.0005767418188042939
5208000000.0 -8.767374674789608e-05 -0.0016182997496798635
5212000000.0 -0.0019001951441168785 0.0006622141809202731
5216000000.0 0.0012272086460143328 0.0014001453528180718
5220000000.0 0.0011155453976243734 -0.0014467625878751278
5224000000.0 -0.0019029135582968593 -0.0003017285489477217
5228000000.0 0.0007271947106346488 0.0018981429748237133
5232000000.0 0.0018467050977051258 -0.0012029479257762432
5236000000.0 -0.001912556355819106 -0.0010359518928453326
5240000000.0 -0.0004488462000153959 0.0020149326883256435
5244000000.0 0.001859990879893303 -0.000702316639944911
5248000000.0 -0.0013223635032773018 -0.0016751578077673912
5252000000.0 -0.0012601538328453898 0.00201113848015666
5256000000.0 0.0019370693480595946 0.0002614715485833585
5260000000.0 -0.0005741650820709765 -0.002054610289633274
5264000000.0 -0.0015904202591627836 0.0011294091818854213
5268000000.0 0.0018209000118076801 0.0012038281420245767
5272000000.0 0.0003432846278883517 -0.00205906480550766
5276000000.0 -0.00179489201400429 0.00043330329935997725
5280000000.0 0.001054986845701933 0.0014733242569491267
5284000000.0 0.0012056620325893164 -0.0017622086452320218
5288000000.0 -0.0020882159005850554 -0.00048742949729785323
5292000000.0 0.000270806165644899 0.0019095777533948421
5296000000.0 0.001370321842841804 -0.0009565718937665224
5300000000.0 -0.0014163579326123 -0.0009007481276057661
5304000000.0 -0.0004319179570302367 0.0015133554115891457
5308000000.0 0.0015180777991190553 -0.00015459366841241717
5312000000.0 -0.0007371954852715135 -0.0013494266895577312
5316000000.0 -0.001207280671223998 0.0009491966920904815
5320000000.0 0.0012526907958090305 0.0007582915131933987
5324000000.0 0.00020534555369522423 -0.0013034418225288391
5328000000.0 -0.0011990442872047424 9.815556404646486e-05
5332000000.0 0.0006164671503938735 0.0010642105480656028
5336000000.0 0.0010057719191536307 -0.0009266650886274874
5340000000.0 -0.0013117091730237007 -0.0004078600904904306
5344000000.0 -0.00023869202414061874 0.0011474298080429435
5348000000.0 0.001380787929520011 -0.00023635711113456637
5352000000.0 -0.000675033952575177 -0.0011550708441063762
5356000000.0 -0.000747647718526423 0.0013003621716052294
5360000000.0 0.001497312681749463 0.000499040586873889
5364000000.0 -0.00028474582359194756 -0.0014659278094768524
5368000000.0 -0.0014011283637955785 0.000556511280592531
5372000000.0 0.0012051298981532454 0.001044989563524723
5376000000.0 0.0007028835243545473 -0.0013620149111375213
5380000000.0 -0.0018144139321520925 -0.0001650784251978621
5384000000.0 0.0006192781729623675 0.001669312478043139
5388000000.0 0.0014949124306440353 -0.0011643547331914306
5392000000.0 -0.0014894544146955013 -0.0008561355643905699
5396000000.0 -0.0003187200636602938 0.0016959271160885692
5400000000.0 0.00168581900652498 -0.0002815646294038743
5404000000.0 -0.0007640070980414748 -0.0013759988360106945
5408000000.0 -0.0009615100570954382 0.0014435537159442902
5412000000.0 0.0016673689242452383 0.00035594982909969985
5416000000.0 -0.0002793740131892264 -0.0018486373592168093
5420000000.0 -0.001459578052163124 0.0009272705065086484
5424000000.0 0.001210779999382794 0.00097808544524014
5428000000.0 0.0004567760042846203 -0.00156079709995538
5432000000.0 -0.0016085096867755055 0.00023359277111012489
5436000000.0 0.000718194933142513 0.001540611032396555
5440000000.0 0.001154259080067277 -0.0013467624085024
5444000000.0 -0.0014605390606448054 -0.0007612452609464526
5448000000.0 1.6268315903289476e-06 0.0018074656836688519
5452000000.0 0.0014492881018668413 -0.0006624495144933462
5456000000.0 -0.0013058771146461368 -0.001331467181444168
5460000000.0 -0.0005665908101946115 0.0017735069850459695
5464000000.0 0.0016566661652177572 -7.50530743971467e-05
5468000000.0 -0.0006280979723669589 -0.0014175651594996452
5472000000.0 -0.0008212439133785665 0.0010022222995758057
5476000000.0 0.0013582989340648055 0.00028140973881818354
5480000000.0 -0.00015312674804590642 -0.0012923396425321698
5484000000.0 -0.0011386461555957794 0.000497459783218801
5488000000.0 0.0008581554866395891 0.0008858267683535814
5492000000.0 0.0005247425870038569 -0.000968314940109849
5496000000.0 -0.0010248715989291668 -0.0003973067505285144
5500000000.0 -4.597581209964119e-06 0.0012424428714439273
5504000000.0 0.0011334446026012301 -0.0005639501614496112
5508000000.0 -0.000758721842430532 -0.0007576286443509161
5512000000.0 -0.00041035839240066707 0.001088733784854412
5516000000.0 0.0013052073772996664 4.573985734168673e-06
5520000000.0 -0.0005396041087806225 -0.0009714075713418424
5524000000.0 -0.0009611110435798764 0.0006047021015547216
5528000000.0 0.0008937650709412992 0.0005362252704799175
5532000000.0 0.00024243148800451308 -0.0012478491989895701
5536000000.0 -0.0010738726705312729 0.00029259739676490426
5540000000.0 0.0007040333584882319 0.0009342512930743396
5544000000.0 0.0006097219884395599 -0.0010213302448391914
5548000000.0 -0.0010997381759807467 -0.00015562045155093074
5552000000.0 0.00017138752446044236 0.0012241080403327942
5556000000.0 0.0009282698738388717 -0.0005378725472837687
5560000000.0 -0.0007103037787601352 -0.0009074372355826199
5564000000.0 -0.0003231921582482755 0.0011019259691238403
5568000000.0 0.001217481098137796 -0.00017089545144699514
5572000000.0 -0.000652961665764451 -0.0010707899928092957
5576000000.0 -0.0007599805248901248 0.000680520199239254
5580000000.0 0.0012172013521194458 0.0002915060322266072
5584000000.0 0.00012699961371254176 -0.0009672147571109235
5588000000.0 -0.0011427096324041486 0.00039224547799676657
5592000000.0 0.0008099389378912747 0.0008137741824612021
5596000000.0 0.0005722254863940179 -0.0011205283226445317
5600000000.0 -0.0012249150313436985 -2.5306961106252857e-05
5604000000.0 0.0003073870902881026 0.0011520198313519359
5608000000.0 0.0007821401813998818 -0.0007519228965975344
5612000000.0 -0.001042635994963348 -0.0006888013449497521
5616000000.0 -0.0004688163462560624 0.0010519950883463025
5620000000.0 0.0011988632613793015 -3.451065140325227e-06
5624000000.0 -0.0007267860346473753 -0.001034469809383154
5628000000.0 -0.0006263251998461783 0.000917893135920167
5632000000.0 0.0013320373836904764 0.00020625708566512913
5636000000.0 -0.00041481549851596355 -0.0013442706549540162
5640000000.0 -0.0011943770805373788 0.0007697718683630228
5644000000.0 0.0011706709628924727 0.0009406639146618545
5648000000.0 0.00023640305153094232 -0.0012186506064608693
5652000000.0 -0.0012768314918503165 0.0002177336427848786
5656000000.0 0.0007349959923885763 0.0010629796888679266
5660000000.0 0.000464561308035627 -0.0008622344466857612
5664000000.0 -0.0009316150099039078 -0.0003121353220194578
5668000000.0 -0.00011021364480257034 0.001014972454868257
5672000000.0 0.0011888121953234076 -0.0003215723263565451
5676000000.0 -0.0009820933919399977 -0.0008500116528011858
5680000000.0 -0.00037716981023550034 0.001091586658731103
5684000000.0 0.0014192921807989478 -7.485270907636732e-05
5688000000.0 -0.00017155504610855132 -0.0011703975033015013
5692000000.0 -0.0009466031915508211 0.000666715728584677
5696000000.0 0.0011424424592405558 0.0004098741919733584
5700000000.0 9.92216300801374e-05 -0.0011066393926739693
5704000000.0 -0.0010010807309299707 0.000278719759080559
5708000000.0 0.0007627807790413499 0.0008514831424690783
5712000000.0 0.0006865164614282548 -0.0011329406406730413
5716000000.0 -0.000957922893576324 -0.0002790682774502784
5720000000.0 0.000200616181246005 0.0008263937779702246
5724000000.0 0.0012682750821113586 -0.00044656271347776055
5728000000.0 -0.0008121472783386707 -0.0007551198941655457
5732000000.0 -0.0005803651874884963 0.0007300638826563954
5736000000.0 0.0010377492289990187 -2.048861642833799e-05
5740000000.0 -0.0004934436874464154 -0.000802568276412785
5744000000.0 -0.0009460775181651115 0.0007772481185384095
5748000000.0 0.0009196923347190022 0.000503823917824775
5752000000.0 0.0004379771708045155 -0.0008868054719641805
5756000000.0 -0.0012290861923247576 0.00013320395373739302
5760000000.0 0.0005931619089096785 0.0008656764402985573
5764000000.0 0.0007934513851068914 -0.0006771940388716757
5768000000.0 -0.0007589198648929596 -0.00040996496682055295
5772000000.0 3.062983159907162e-05 0.0010541630908846855
5776000000.0 0.0010441829217597842 -0.00027811143081635237
5780000000.0 -0.0006404230371117592 -0.0009646223625168204
5784000000.0 -0.0005574809038080275 0.0011468178126960993
5788000000.0 0.0013270897325128317 -7.516297773690894e-05
5792000000.0 -0.0003933145781047642 -0.0010939250933006406
5796000000.0 -0.0009015045943669975 0.00047713174717500806
5800000000.0 0.0012164984364062548 0.0009323604172095656
5804000000.0 0.00024482360458932817 -0.0010146427666768432
5808000000.0 -0.001021051430143416 0.0001516287011327222
5812000000.0 0.0006239088834263384 0.0010988357244059443
5816000000.0 0.0008454151684418321 -0.0010423093335703015
5820000000.0 -0.0014007599093019962 -0.0004460299387574196
5824000000.0 -0.00013535923790186644 0.0011973283253610134
5828000000.0 0.0010434642899781466 -0.0003794046933762729
5832000000.0 -0.0005264858482405543 -0.0007636492955498397
5836000000.0 -0.0005621763993985951 0.001062764902599156
5840000000.0 0.0012558279559016228 0.00022012297995388508
5844000000.0 -0.00031573284650221467 -0.0012506151106208563
5848000000.0 -0.001282700803130865 0.00041248800698667765
5852000000.0 0.00097398750949651 0.0008459592354483902
5856000000.0 0.0004204628639854491 -0.0013448577374219894
5860000000.0 -0.0012236436596140265 0.00016846389917191118
5864000000.0 0.0003290488675702363 0.0011700473260134459
5868000000.0 0.0009317717049270868 -0.001118321786634624
5872000000.0 -0.001122520538046956 -0.0006648396956734359
5876000000.0 7.98382461653091e-05 0.0013807540526613593
5880000000.0 0.0014734973665326834 -0.00051888293819502
5884000000.0 -0.0011447335127741098 -0.0009383847936987877
5888000000.0 -0.00080837681889534 0.0012077107094228268
5892000000.0 0.0011156083783134818 7.91816710261628e-05
5896000000.0 -0.00043306624866090715 -0.001250264118425548
5900000000.0 -0.0010492276633158326 0.0006414586678147316
5904000000.0 0.0013047263491898775 0.0008902597473934293
5908000000.0 0.0006009033531881869 -0.0011647441424429417
5912000000.0 -0.0010344621259719133 0.00014425722474697977
5916000000.0 0.00039508516783826053 0.0009858618723228574
5920000000.0 0.0006678811623714864 -0.0008327590767294168
5924000000.0 -0.0013621069956570864 -0.00011306296073598787
5928000000.0 0.00027751558809541166 0.0012308735167607665
5932000000.0 0.001103934715501964 -0.0003943020128645003
5936000000.0 -0.0007368151564151049 -0.000750672712456435
5940000000.0 -0.00038019876228645444 0.0009206237155012786
5944000000.0 0.0009601986384950578 -1.77317087945994e-05
5948000000.0 -0.00018669631390366703 -0.0009601523051969707
5952000000.0 -0.0007795878336764872 0.0007172085461206734
5956000000.0 0.0009903114987537265 0.00044681658619083464
5960000000.0 0.0003368169127497822 -0.0009367663296870887
5964000000.0 -0.0009293826296925545 0.00043437554268166423
5968000000.0 0.00029955754871480167 0.0006949658272787929
5972000000.0 0.0005283080390654504 -0.00047457264736294746
5976000000.0 -0.000889078713953495 -0.000542887719348073
5980000000.0 2.8786360417143442e-05 0.0008882259717211127
5984000000.0 0.0010751308873295784 -0.0002796102489810437
5988000000.0 -0.0009211749420501292 -0.0007876587333157659
5992000000.0 -0.000516073196195066 0.0010684158187359571
5996000000.0 0.0013366974890232086 0.00013026433589402586
6000000000.0 -0.0004309984506107867 -0.0008643995388410985
6004000000.0 -0.0011170112993568182 0.0003876915143337101
6008000000.0 0.0008634346886537969 0.0006872983649373055
6012000000.0 0.0001281734585063532 -0.0010249953484162688
6016000000.0 -0.001204247702844441 0.0001507510314695537
6020000000.0 0.0006489686202257872 0.0009000779828056693
6024000000.0 0.0006024604081176221 -0.0007251265924423933
6028000000.0 -0.0011026182910427451 -0.0005486285081133246
6032000000.0 0.000308327900711447 0.0012109660310670733
6036000000.0 0.0012809376930817962 -0.000805680057965219
6040000000.0 -0.0010331585071980953 -0.0007284575840458274
6044000000.0 -0.00025486297090537846 0.0010706230532377958
6048000000.0 0.001049855607561767 -0.00012767566659022123
6052000000.0 -0.00038756802678108215 -0.0008215393172577024
6056000000.0 -0.0008545309538021684 0.0007760250009596348
6060000000.0 0.0009388623875565827 0.0003211426956113428
6064000000.0 0.00013948128616902977 -0.000928766094148159
6068000000.0 -0.0009333312045782804 0.00017971832130569965
6072000000.0 0.0005201593739911914 0.0007038149051368237
6076000000.0 0.0006818297551944852 -0.0008939998806454241
6080000000.0 -0.0013340006116777658 -0.00027327524730935693
6084000000.0 -8.699083991814405e-05 0.0009719510562717915
6088000000.0 0.0010931355645880103 -0.0003226337721571326
6092000000.0 -0.0009075713460333645 -0.0011423589894548059
6096000000.0 -0.00019202922703698277 0.001266252831555903
6100000000.0 0.0014261627802625299 0.00029479648219421506
6104000000.0 -0.0005611507804132998 -0.0011564994929358363
6108000000.0 -0.001068232930265367 0.0013061793288215995
6112000000.0 0.001384242088533938 0.0004419533652253449
6116000000.0 -0.00030936143593862653 -0.0011286232620477676
6120000000.0 -0.0014397638151422143 0.00041213969234377146
6124000000.0 0.0012201587669551373 0.0008319184416905046
6128000000.0 0.00021002836001571268 -0.0013616012874990702
6132000000.0 -0.0011197632411494851 0.00027623982168734074
6136000000.0 0.0002510451595298946 0.0011245474452152848
6140000000.0 0.001000049989670515 -0.00089465786004439
6144000000.0 -0.0009080987074412405 -0.00027931714430451393
6148000000.0 4.401029946166091e-05 0.0007940749055705965
6152000000.0 0.0010522475931793451 -0.000338208134053275
6156000000.0 -0.0007349810912273824 -0.0009279776713810861
6160000000.0 -0.0006152676651254296 0.000861206732224673
6164000000.0 0.0008932913769967854 0.0005376619519665837
6168000000.0 -5.5624379456276074e-05 -0.001014293753542006
6172000000.0 -0.0010162298567593098 0.0005972115905024111
6176000000.0 0.0006552680279128253 0.0006588166579604149
6180000000.0 0.0005100850248709321 -0.0011918552918359637
6184000000.0 -0.0013521851506084204 -0.00043518500751815736
6188000000.0 0.000227423821343109 0.0012611537240445614
6192000000.0 0.0009932552929967642 -0.0007030823617242277
6196000000.0 -0.0012297232169657946 -0.000642828643321991
6200000000.0 -0.00022426348004955798 0.0013831021497026086
6204000000.0 0.0015785719733685255 -0.0004553425533231348
6208000000.0 -0.0011743917129933834 -0.001419348525814712
6212000000.0 -0.0009735545609146357 0.0015202697832137346
6216000000.0 0.0019754066597670317 7.039753836579621e-05
6220000000.0 -0.0005698812892660499 -0.0015935723204165697
6224000000.0 -0.0014745078515261412 0.0012666850816458464
6228000000.0 0.0013166173594072461 0.0005556308897212148
6232000000.0 1.550474189571105e-05 -0.0017325922381132841
6236000000.0 -0.0013492282014340162 0.0004462278157006949
6240000000.0 0.0011073555797338486 0.0011934193316847086
6244000000.0 0.000463279546238482 -0.0014359795022755861
6248000000.0 -0.001548635307699442 4.172211993136443e-05
6252000000.0 0.0003644920652732253 0.0017321925843134522
6256000000.0 0.0012531363172456622 -0.0005849266308359802
6260000000.0 -0.0011074586072936654 -0.0009875735267996788
6264000000.0 -0.0005041763070039451 0.0013808999210596085
6268000000.0 0.0013551441952586174 3.444970934651792e-05
6272000000.0 -0.0003617028414737433 -0.0013407132355496287
6276000000.0 -0.001193716423586011 0.0010557979112491012
6280000000.0 0.001341138151474297 0.0006960994796827435
6284000000.0 0.00020995894738007337 -0.001622760551981628
6288000000.0 -0.0015612718416377902 0.0001616908557480201
6292000000.0 0.0010233131470158696 0.0014754424337297678
6296000000.0 0.0010750298388302326 -0.001468853559345007
6300000000.0 -0.0018524755723774433 -0.0005078392568975687
6304000000.0 0.00013535335892811418 0.00199911929666996
6308000000.0 0.0018898468697443604 -0.0007928743143565953
6312000000.0 -0.001754133147187531 -0.0015083671314641833
6316000000.0 -0.0006622657529078424 0.002215634798631072
6320000000.0 0.0021703471429646015 -0.00013148612924851477
6324000000.0 -0.0012841738061979413 -0.0021858091931790113
6328000000.0 -0.0012526920763775706 0.002091440139338374
6332000000.0 0.0022207738365978003 0.00028247316367924213
6336000000.0 -0.000666984124109149 -0.002179306000471115
6340000000.0 -0.00165161257609725 0.0015172056155279279
6344000000.0 0.0018942176830023527 0.0009636151953600347
6348000000.0 0.0001163563720183447 -0.002202663104981184
6352000000.0 -0.0018090656958520412 0.0006070808158256114
6356000000.0 0.0011942238779738545 0.0014962650602683425
6360000000.0 0.0008861414389684796 -0.0014584057498723269
6364000000.0 -0.0014954807702451944 -0.0004833497805520892
6368000000.0 -0.0001064270400092937 0.0018727469723671675
6372000000.0 0.0016218969831243157 -0.0006617142935283482
6376000000.0 -0.0013574458425864577 -0.0012531897518783808
6380000000.0 -0.0005784776876680553 0.0015855494420975447
6384000000.0 0.0017828878480941057 0.00012118000449845567
6388000000.0 -0.0006421731668524444 -0.0015827295137569308
6392000000.0 -0.0013083225348964334 0.0009885098552331328
6396000000.0 0.0014952747151255608 0.0010656986851245165
6400000000.0 0.0005426318966783583 -0.0018662018701434135
6404000000.0 -0.002038049977272749 0.00036744773387908936
6408000000.0 0.0010584841948002577 0.0017841716762632132
6412000000.0 0.001409952761605382 -0.001743601867929101
6416000000.0 -0.0024932946544140577 -0.0002589875948615372
6420000000.0 0.0006719104712828994 0.0020667249336838722
6424000000.0 0.0017963640857487917 -0.0013999657239764929
6428000000.0 -0.0019694771617650986 -0.0008499457617290318
6432000000.0 3.375072992639616e-05 0.0022199563682079315
6436000000.0 0.0019197572255507112 -0.0007991942693479359
6440000000.0 -0.0017352713039144874 -0.0012835911475121975
6444000000.0 -0.0005575906834565103 0.0019805417396128178
6448000000.0 0.0018202081555500627 -0.00015488079225178808
6452000000.0 -0.000775809632614255 -0.0015307693975046277
6456000000.0 -0.001207506749778986 0.0012762316036969423
6460000000.0 0.0013791470555588603 0.0006018345593474805
6464000000.0 -7.259858102770522e-05 -0.001482810010202229
6468000000.0 -0.0013680090196430683 0.00042376393685117364
6472000000.0 0.0008069175528362393 0.0008383158128708601
6476000000.0 0.0006414891686290503 -0.0011889166198670864
6480000000.0 -0.0013255008962005377 -0.0002512883802410215
6484000000.0 0.0003088354133069515 0.0014688951196148992
6488000000.0 0.0010889054974541068 -0.00046880709123797715
6492000000.0 -0.0009906144114211202 -0.0008994987583719194
6496000000.0 -0.0005868612206541002 0.0013446027878671885
6500000000.0 0.0015592576237395406 -0.00016050123667810112
6504000000.0 -0.0008679457241669297 -0.0014769842382520437
6508000000.0 -0.0009454317041672766 0.0011506450828164816
6512000000.0 0.0016944645904004574 0.0003430912038311362
6516000000.0 -0.00022099260240793228 -0.001624395023100078
6520000000.0 -0.0014883620897307992 0.000890237046405673
6524000000.0 0.0016379010630771518 0.0011465690331533551
6528000000.0 0.0004107773129362613 -0.001694306149147451
6532000000.0 -0.0018262603553012013 0.0004903206136077642
6536000000.0 0.0013374219415709376 0.0013893016148358583
6540000000.0 0.0006056924466975033 -0.0016484411899000406
6544000000.0 -0.0018940287409350276 0.00017830652359407395
6548000000.0 0.0008990842034108937 0.0015491199446842074
6552000000.0 0.0009501425665803254 -0.001243344391696155
6556000000.0 -0.001534819952212274 -0.0002608079230412841
6560000000.0 0.0003039388975594193 0.001624119933694601
6564000000.0 0.0009479395812377334 -0.0008742931531742215
6568000000.0 -0.0010365948546677828 -0.000635024975053966
6572000000.0 -0.00034408754436299205 0.0012863434385508299
6576000000.0 0.0010906497482210398 -0.00014279077004175633
6580000000.0 -0.0003103732306044549 -0.0012471885420382023
6584000000.0 -0.0008836983470246196 0.0009314407361671329
6588000000.0 0.0011346522951498628 0.0002602825697977096
6592000000.0 -9.614808368496597e-05 -0.001118708518333733
6596000000.0 -0.0011223836336284876 0.0007064717938192189
6600000000.0 0.0009564745705574751 0.0006561234476976097
6604000000.0 0.00038264525937847793 -0.0010529670398682356
6608000000.0 -0.00150259118527174 0.00011050585453631356
6612000000.0 0.00046449186629615724 0.00102068146225065
6616000000.0 0.0007596890791319311 -0.0009328311425633729
6620000000.0 -0.0013451024424284697 -0.0004322822205722332
6624000000.0 6.627998664043844e-05 0.0011994658270850778
6628000000.0 0.001243874547071755 -0.0007054333691485226
6632000000.0 -0.0007399645401164889 -0.0008159421849995852
6636000000.0 -0.00043970238766632974 0.0008524729637429118
6640000000.0 0.0010991280432790518 -0.00038706735358573496
6644000000.0 -0.0007105674012564123 -0.0010183859849348664
6648000000.0 -0.0005754061858169734 0.000794398772995919
6652000000.0 0.0012604146031662822 0.000508174009155482
6656000000.0 -0.0002779332862701267 -0.001075055100955069
6660000000.0 -0.000937522912863642 0.00044666515896096826
6664000000.0 0.0007844704668968916 0.0007172375917434692
6668000000.0 6.539488822454587e-05 -0.0009890778455883265
6672000000.0 -0.0011006767163053155 0.0002683046623133123
6676000000.0 0.0007438570610247552 0.0008825125987641513
6680000000.0 0.0003781628329306841 -0.0008652391261421144
6684000000.0 -0.0009335177601315081 -0.0003443066671025008
6688000000.0 0.00037114860606379807 0.000918733247090131
6692000000.0 0.0006011556833982468 -0.0004955618060193956
6696000000.0 -0.0008351532742381096 -0.0007386594079434872
6700000000.0 -0.00012954205158166587 0.0011103987926617265
6704000000.0 0.0008006638381630182 -0.0004474323068279773
6708000000.0 -0.0008695793221704662 -0.0008168066269718111
6712000000.0 -0.000228366072406061 0.000948925269767642
6716000000.0 0.0007929892744868994 -0.0003002442535944283
6720000000.0 -0.0008984881569631398 -0.0005239381571300328
6724000000.0 -0.00041293329559266567 0.0009048606152646244
6728000000.0 0.0008289735415019095 -0.0001467797119403258
6732000000.0 -0.00038324599154293537 -0.0005809069843962789
6736000000.0 -0.0006568874232470989 0.0005052002961747348
6740000000.0 0.0007423368515446782 3.6890047340421006e-05
6744000000.0 -0.0001597239461261779 -0.0007424389477819204
6748000000.0 -0.0007399626774713397 0.0004580035456456244
6752000000.0 0.0005245974170975387 0.0005772351869381964
6756000000.0 4.0033137338468805e-05 -0.0009006534237414598
6760000000.0 -0.0006718186195939779 0.0006760102114640176
6764000000.0 0.0011632632231339812 0.0001224601292051375
6768000000.0 -7.009144610492513e-05 -0.0009420476271770895
6772000000.0 -0.00045521470019593835 0.0006418257253244519
6776000000.0 0.00036045885644853115 0.0005712019046768546
6780000000.0 0.0002900645777117461 -0.0003350835759192705
6784000000.0 -0.0007358751608990133 0.0001504382526036352
6788000000.0 0.00046528232633136213 0.00041477542254142463
6792000000.0 0.0003497893630992621 -0.0003868587373290211
6796000000.0 -0.0006901691085658967 0.00014912241022102535
6800000000.0 0.0001792177208699286 0.0005597203853540123
6804000000.0 0.0006658079219050705 -0.00037946889642626047
6808000000.0 -0.0005061211413703859 -0.0003163270594086498
6812000000.0 -0.00035749480593949556 0.0007709847996011376
6816000000.0 0.0008494528592564166 -3.877834387822077e-05
6820000000.0 -0.0004200328839942813 -0.0005912382039241493
6824000000.0 -0.0009200838976539671 0.0008352245204150677
6828000000.0 0.0009968308731913567 1.9711971617653035e-05
6832000000.0 -0.0005501125706359744 -0.0011084110010415316
6836000000.0 -0.0008338847546838224 0.0006134883151389658
6840000000.0 0.0008318113395944238 0.0006393384537659585
6844000000.0 6.578281318070367e-05 -0.001122769434005022
6848000000.0 -0.001237913966178894 0.00037872069515287876
6852000000.0 0.0010206002043560147 0.0010341400047764182
6856000000.0 0.0007037128088995814 -0.001372573897242546
6860000000.0 -0.0013866020599380136 0.0002935811353381723
6864000000.0 0.0006444586324505508 0.001015102374367416
6868000000.0 0.0006929858936928213 -0.0010044175432994962
6872000000.0 -0.001280622323974967 -0.0008344678208231926
6876000000.0 9.41263569984585e-05 0.0010987977730110288
6880000000.0 0.0009860112331807613 -0.0002043712156591937
6884000000.0 -0.0006547486409544945 -0.0011323766084387898
6888000000.0 -0.0009570059482939541 0.0011417455971240997
6892000000.0 0.001402084599249065 0.0006412474904209375
6896000000.0 0.00019812247774098068 -0.001523918705061078
6900000000.0 -0.0014407497365027666 0.0005077020032331347
6904000000.0 0.001049174927175045 0.0016578384675085545
6908000000.0 0.0009047127678059042 -0.002054582815617323
6912000000.0 -0.002334035001695156 -4.053397060488351e-05
6916000000.0 0.0015445370227098465 0.002311494667083025
6920000000.0 0.0008248642552644014 -0.002231369260698557
6924000000.0 -0.0024345957208424807 8.010000601643696e-05
6928000000.0 0.001033563050441444 0.00174946547485888
6932000000.0 0.0012780883116647601 -0.0012068505166098475
6936000000.0 -0.0013798741856589913 -0.000640809943433851
6940000000.0 -0.0005924778524786234 0.0017339922487735748
6944000000.0 0.0019123319070786238 -0.00040331637137569487
6948000000.0 -0.0010726639302447438 -0.0016379061853513122
6952000000.0 -0.0010871033882722259 0.0018171201227232814
6956000000.0 0.002125237602740526 0.00044346178765408695
6960000000.0 -0.0004986699786968529 -0.0020237888675183058
6964000000.0 -0.0015543618937954307 0.001141074695624411
6968000000.0 0.0016551612643525004 0.0009816180681809783
6972000000.0 0.0003584976075217128 -0.0016162912361323833
6976000000.0 -0.001819443074055016 0.00028549268608912826
6980000000.0 0.0008746531093493104 0.00143247761297971
6984000000.0 0.0007823231280781329 -0.0012657515471801162
6988000000.0 -0.0010869124671444297 -0.0004990323795937002
6992000000.0 -0.00015065724437590688 0.0016749522183090448
6996000000.0 0.0016266712918877602 0.0001049064303515479
7000000000.0 -0.00046711426693946123 -0.0015174965374171734
7004000000.0 -0.0011615967378020287 0.0010468637337908149
7008000000.0 0.0018782711122184992 0.0011182851158082485
7012000000.0 0.0006451818044297397 -0.002254265360534191
7016000000.0 -0.002520228736102581 0.00047343395999632776
7020000000.0 0.001583104021847248 0.0025987657718360424
7024000000.0 0.0019917753525078297 -0.0025100293569266796
7028000000.0 -0.0037655711639672518 -2.868221781682223e-05
7032000000.0 0.001922952476888895 0.003385158721357584
7036000000.0 0.0018600185867398977 -0.003125022631138563
7040000000.0 -0.0036851956974714994 -4.579100277624093e-05
7044000000.0 0.0012236916227266192 0.0029595105443149805
7048000000.0 0.001966280397027731 -0.0018224588129669428
7052000000.0 -0.0026201624423265457 -0.0012251664884388447
7056000000.0 -0.0005186419002711773 0.002392069436609745
7060000000.0 0.0030125745106488466 -0.00021511696104425937
7064000000.0 -0.0015592590207234025 -0.002648074645549059
7068000000.0 -0.0021071485243737698 0.0028237125370651484
7072000000.0 0.0037445530761033297 0.0006629267008975148
7076000000.0 -0.0017254651756957173 -0.003721473505720496
7080000000.0 -0.002255579922348261 0.0027333854231983423
7084000000.0 0.003524059196934104 0.00020819109340664
7088000000.0 -0.0010361323365941644 -0.002852479927241802
7092000000.0 -0.0018292010063305497 0.0013823889894410968
7096000000.0 0.001961460569873452 0.0010701243299990892
7100000000.0 0.0005646049394272268 -0.0017620541620999575
7104000000.0 -0.001979902619495988 -0.00033002629061229527
7108000000.0 0.00010172303154831752 0.0014720824547111988
7112000000.0 0.001655436703003943 -0.0009238073253072798
7116000000.0 -0.0015436200192198157 -0.0015335141215473413
7120000000.0 -0.0010590062011033297 0.0022667432203888893
7124000000.0 0.0025735001545399427 0.00020635761029552668
7128000000.0 -0.0012201926438137889 -0.002644129330292344
7132000000.0 -0.002089602407068014 0.0023910680320113897
7136000000.0 0.00307827303186059 0.0007251511560752988
7140000000.0 -0.0009759269887581468 -0.0034757221583276987
7144000000.0 -0.00179053854662925 0.001740574254654348
7148000000.0 0.0017431223532184958 0.0006744448328390718
7152000000.0 0.0006400872953236103 -0.0022850485984236
7156000000.0 -0.0023293576668947935 -7.83731957199052e-05
7160000000.0 0.0009142377530224621 0.0022606253623962402
7164000000.0 0.002091089729219675 -0.0014093647478148341
7168000000.0 -0.0023380808997899294 -0.0010946588590741158
7172000000.0 -0.0005824005347676575 0.002883154433220625
7176000000.0 0.003133077872917056 -0.000466675846837461
7180000000.0 -0.0018878240371122956 -0.0023871648591011763
7184000000.0 -0.0018983500776812434 0.0026372771244496107
7188000000.0 0.003966775722801685 0.0008745437953621149
7192000000.0 -0.0010745528852567077 -0.004151846282184124
7196000000.0 -0.0032056099735200405 0.0027867378666996956
7200000000.0 0.003965307492762804 0.0015253341989591718
7204000000.0 -0.00034204430994577706 -0.003788318717852235
7208000000.0 -0.0036387902218848467 0.001567540573887527
7212000000.0 0.0026774804573506117 0.002257361775264144
7216000000.0 0.0007826946093700826 -0.003111528465524316
7220000000.0 -0.003465259214863181 9.495428457739763e-06
7224000000.0 0.001129760523326695 0.003500050399452448
7228000000.0 0.0028027421794831753 -0.002312770811840892
7232000000.0 -0.0030962289310991764 -0.0020040315575897694
7236000000.0 -0.0007580146193504333 0.004534122999757528
7240000000.0 0.004772645886987448 -0.0012287007411941886
7244000000.0 -0.004572487436234951 -0.0037098571192473173
7248000000.0 -0.000880698615219444 0.005559161771088839
7252000000.0 0.004580089822411537 -0.0018904017051681876
7256000000.0 -0.003071373561397195 -0.0024979093577712774
7260000000.0 -0.0014184871688485146 0.003447329392656684
7264000000.0 0.002441569697111845 0.00048501804121769965
7268000000.0 -0.0005190024385228753 -0.002570531563833356
7272000000.0 -0.0022646659053862095 0.0011427567806094885
7276000000.0 0.0018113969126716256 0.0017957657109946012
7280000000.0 0.0011350065469741821 -0.002283385256305337
7284000000.0 -0.0026889084838330746 -0.0004990406450815499
7288000000.0 0.00023843928647693247 0.0029997555539011955
7292000000.0 0.00283982721157372 -0.0014161263825371861
7296000000.0 -0.003357372246682644 -0.0023180749267339706
7300000000.0 0.0002214156265836209 0.004218606743961573
7304000000.0 0.0029422070365399122 -0.0023984371218830347
7308000000.0 -0.0019449833780527115 -0.0012431135401129723
7312000000.0 -0.0007732190424576402 0.0018818493699654937
7316000000.0 0.0020389999262988567 0.0011020884849131107
7320000000.0 0.00042893661884590983 -0.002468750113621354
7324000000.0 -0.0026307832449674606 0.000431125023169443
7328000000.0 0.001692695077508688 0.0021636495366692543
7332000000.0 0.0017393340822309256 -0.002133619971573353
7336000000.0 -0.0030253822915256023 -0.0007348580402322114
7340000000.0 0.00011392713349778205 0.003190443152561784
7344000000.0 0.003513319417834282 -0.001540263299830258
7348000000.0 -0.0031933917198330164 -0.003259618766605854
7352000000.0 -0.0011185335461050272 0.004713849164545536
7356000000.0 0.0046090902760624886 -0.0015395033406093717
7360000000.0 -0.00342479906976223 -0.003609463106840849
7364000000.0 -0.001607829355634749 0.004004079848527908
7368000000.0 0.004146249033510685 -3.555696093826555e-05
7372000000.0 -0.0016536741750314832 -0.003463730914518237
7376000000.0 -0.00287567893974483 0.0027282063383609056
7380000000.0 0.0029265182092785835 0.0018322847317904234
7384000000.0 0.0005233263946138322 -0.003592502558603883
7388000000.0 -0.0035066958516836166 0.0008100490085780621
7392000000.0 0.0013659022515639663 0.00265760556794703
7396000000.0 0.0022581233642995358 -0.0016880627954378724
7400000000.0 -0.002899275394156575 -0.0016966399271041155
7404000000.0 -0.0010084492387250066 0.0038845862727612257
7408000000.0 0.004454608540982008 -0.00041975066415034235
7412000000.0 -0.0029037802014499903 -0.004102060105651617
7416000000.0 -0.0023808833211660385 0.005369602702558041
7420000000.0 0.005327373743057251 -0.000994419795460999
7424000000.0 -0.0032513837795704603 -0.0034336778335273266
7428000000.0 -0.0014400046784430742 0.0040979026816785336
7432000000.0 0.0038414045702666044 -0.000787562457844615
7436000000.0 -0.0011348638217896223 -0.002486250828951597
7440000000.0 -0.0023015951737761497 0.001093889120966196
7444000000.0 0.0016453531570732594 0.001923100440762937
7448000000.0 0.0014907889999449253 -0.0020547935273498297
7452000000.0 -0.0025627361610531807 -0.001054327585734427
7456000000.0 -0.0001725744950817898 0.002807093085721135
7460000000.0 0.0030362349934875965 -0.0010710995411500335
7464000000.0 -0.0021572797559201717 -0.0027482302393764257
7468000000.0 -0.0020488249137997627 0.003520980942994356
7472000000.0 0.004019143059849739 0.00030537048587575555
7476000000.0 -0.0019570288714021444 -0.003949933685362339
7480000000.0 -0.003070537466555834 0.0036058835685253143
7484000000.0 0.004572404082864523 0.0014186091721057892
7488000000.0 -0.0005946370074525476 -0.0045308577828109264
7492000000.0 -0.003422984154894948 0.002299984684213996
7496000000.0 0.0033645411022007465 0.0022493316791951656
7500000000.0 0.000586960930377245 -0.0039190007373690605
7504000000.0 -0.003971680998802185 0.0004837076412513852
7508000000.0 0.0023482583928853273 0.0036653848364949226
7512000000.0 0.001869030180387199 -0.0032679808791726828
7516000000.0 -0.0030834160279482603 -0.0009450034704059362
7520000000.0 -0.00020293791021686047 0.0030598791781812906
7524000000.0 0.003217203076928854 -0.0010655714431777596
7528000000.0 -0.00236998638138175 -0.0027988292276859283
7532000000.0 -0.0013724296586588025 0.0030722373630851507
7536000000.0 0.003404841758310795 9.876103285932913e-05
7540000000.0 -0.001081226160749793 -0.003429300617426634
7544000000.0 -0.0031249462626874447 0.001666281488724053
7548000000.0 0.0030847566667944193 0.0019526556134223938
7552000000.0 0.0009098302689380944 -0.002786842407658696
7556000000.0 -0.0030868095345795155 0.00022022740449756384
7560000000.0 0.0008307166281156242 0.0032422528602182865
7564000000.0 0.003743636654689908 -0.0021649838890880346
7568000000.0 -0.004290895536541939 -0.003707693424075842
7572000000.0 -0.0006281087407842278 0.007122492883354425
7576000000.0 0.006798577960580587 -0.004685705062001944
7580000000.0 -0.007557920645922422 -0.002590151969343424
7584000000.0 0.002481788629665971 0.007124439813196659
7588000000.0 0.0037169752176851034 -0.004860129207372665
7592000000.0 -0.004585253074765205 -0.0007410819525830448
7596000000.0 0.00039205120992846787 0.003327838610857725
7600000000.0 0.002765710698440671 -0.000952273141592741
7604000000.0 -0.0017574611119925976 -0.00210131099447608
7608000000.0 -0.0014874656917527318 0.002489860635250807
7612000000.0 0.0026226183399558067 0.00034024642081931233
7616000000.0 -0.0002781726943794638 -0.002322073094546795
7620000000.0 -0.002334063174203038 0.0010370780946686864
7624000000.0 0.0017862528329715133 0.0022896567825227976
7628000000.0 0.0014847336569800973 -0.0022960032802075148
7632000000.0 -0.0032660532742738724 -0.0005648558726534247
7636000000.0 0.00034125923411920667 0.0036682214122265577
7640000000.0 0.0033869582694023848 -0.0016966189723461866
7644000000.0 -0.0030075800605118275 -0.0023556610103696585
7648000000.0 -0.001004717661999166 0.0039507001638412476
7652000000.0 0.0039065987803041935 -0.0006111333495937288
7656000000.0 -0.0024521430023014545 -0.0031987105030566454
7660000000.0 -0.0018986157374456525 0.0030863997526466846
7664000000.0 0.0032621275167912245 0.0007906040991656482
7668000000.0 -0.0005466541624628007 -0.003697443986311555
7672000000.0 -0.002981205703690648 0.001664180657826364
7676000000.0 0.0028521784115582705 0.0027001332491636276
7680000000.0 0.0017658137949183583 -0.0034317004028707743
7684000000.0 -0.0035393736325204372 -0.0001910257851704955
7688000000.0 0.0010731000220403075 0.0038238666020333767
7692000000.0 0.004016513004899025 -0.0025279016699641943
7696000000.0 -0.0040517239831388 -0.0030530509538948536
7700000000.0 -0.001411468256264925 0.005990179255604744
7704000000.0 0.006827506236732006 -0.001351956743746996
7708000000.0 -0.005247205961495638 -0.005688145756721497
7712000000.0 -0.002248739590868354 0.008107495494186878
7716000000.0 0.007849954068660736 -0.0025702505372464657
7720000000.0 -0.006051662843674421 -0.005413626786321402
7724000000.0 -0.0016449147369712591 0.007431339006870985
7728000000.0 0.006476060952991247 -0.0016281086718663573
7732000000.0 -0.004060263279825449 -0.00488459225744009
7736000000.0 -0.0022786990739405155 0.004883809946477413
7740000000.0 0.00464659696444869 3.585578815545887e-05
7744000000.0 -0.0014563194708898664 -0.0037948591634631157
7748000000.0 -0.0030480772256851196 0.0019483253126963973
7752000000.0 0.0032275409903377295 0.002327920403331518
7756000000.0 0.0007634498761035502 -0.0037695092614740133
7760000000.0 -0.0034200793597847223 0.00032883338280953467
7764000000.0 0.0010235820664092898 0.003112422302365303
7768000000.0 0.0017766812816262245 -0.0019020430045202374
7772000000.0 -0.0011597771663218737 -0.001642644521780312
7776000000.0 -0.0019089402630925179 0.003064858727157116
7780000000.0 0.003795390482991934 0.0005444482667371631
7784000000.0 -0.0010760924778878689 -0.0034685267601162195
7788000000.0 -0.0028238904196769 0.0015984136844053864
7792000000.0 0.0019861215259879827 0.0032910958398133516
7796000000.0 0.004821870010346174 -0.004926078952848911
7800000000.0 -0.010477551259100437 -0.0018271852750331163
7804000000.0 0.009324280545115471 0.00872010551393032
7808000000.0 0.0004726798215415329 -0.010119368322193623
7812000000.0 -0.0069722277112305164 0.003822145750746131
7816000000.0 0.004738931078463793 0.004420822486281395
7820000000.0 0.002065335400402546 -0.005749995354562998
7824000000.0 -0.005629695951938629 0.0009323203703388572
7828000000.0 0.00241654715500772 0.0038658445701003075
7832000000.0 0.0023988252505660057 -0.0033712282311171293
7836000000.0 -0.003190619871020317 -0.0011107726022601128
7840000000.0 -0.000733721477445215 0.002728943480178714
7844000000.0 0.00319110369309783 -6.795389344915748e-05
7848000000.0 -0.0003809513582382351 -0.003759839804843068
7852000000.0 -0.0034928021486848593 0.001734708552248776
7856000000.0 0.0030744581017643213 0.0036102537997066975
7860000000.0 0.0028537907637655735 -0.0055139935575425625
7864000000.0 -0.0077940355986356735 -0.00033429168979637325
7868000000.0 0.00543377036228776 0.006997332442551851
7872000000.0 0.0015033363597467542 -0.008121400140225887
7876000000.0 -0.006243469659239054 0.001794637180864811
7880000000.0 0.0033895117230713367 0.004091558512300253
7884000000.0 0.0018533858237788081 -0.004272544290870428
7888000000.0 -0.0037592072039842606 -0.0006461002049036324
7892000000.0 0.0004165474383626133 0.0034724269062280655
7896000000.0 0.0031565965618938208 -0.0010216968366876245
7900000000.0 -0.0016850106185302138 -0.0030298701021820307
7904000000.0 -0.002308750059455633 0.002251024590805173
7908000000.0 0.003235488897189498 0.0020592203363776207
7912000000.0 0.0013029415858909488 -0.004076541401445866
7916000000.0 -0.005149921402335167 0.0009718010551296175
7920000000.0 0.0028816713020205498 0.004645111039280891
7924000000.0 0.003618416842073202 -0.005222491919994354
7928000000.0 -0.00505997845903039 -0.00016213157505262643
7932000000.0 0.0018193264259025455 0.005655999295413494
7936000000.0 0.004977984819561243 -0.0035199106205254793
7940000000.0 -0.005359284579753876 -0.0026795994490385056
7944000000.0 -0.0010638857493177056 0.005918548908084631
7948000000.0 0.005997627042233944 -0.000588756229262799
7952000000.0 -0.0031355340033769608 -0.0064392476342618465
7956000000.0 -0.005842424463480711 0.006133931688964367
7960000000.0 0.01171146985143423 0.0026670603547245264
7964000000.0 -0.00791216641664505 -0.014084447175264359
7968000000.0 -1.2010872296741582e-06 0.015991948544979095
7972000000.0 0.007224643602967262 -0.0068298340775072575
7976000000.0 -0.005153462290763855 -0.002377935219556093
7980000000.0 -0.0008191409870050848 0.004189293831586838
7984000000.0 0.003467170288786292 -0.0002837198262568563
7988000000.0 -0.00038663146551698446 -0.003214944154024124
7992000000.0 -0.0029730824753642082 0.0017134721856564283
7996000000.0 0.001378691173158586 0.0017599918646737933
8000000000.0 0.0014329067198559642 -0.0031398001592606306
