! Created with skrf 1.10.0 (http://scikit-rf.org).
# Hz S RI R 50.0 
!freq ReS11 ImS11
!
6000000000.0 0.0005456832586787641 -0.0024858175311237574
6001000000.0 -0.0008911954937502742 -0.0026745074428617954
6002000000.0 -0.002087322762235999 -0.0019770339131355286
6003000000.0 -0.002717234194278717 -0.0006365533918142319
6004000000.0 -0.0026038787327706814 0.0006106614018790424
6005000000.0 -0.0019857974257320166 0.0017515768995508552
6006000000.0 -0.0007844839128665626 0.002633274532854557
6007000000.0 0.0007451357669197023 0.0025783872697502375
6008000000.0 0.0017566047608852386 0.0019706441089510918
6009000000.0 0.002338231774047017 0.0008387987036257982
6010000000.0 0.0025012146215885878 -0.00019851540855597705
6011000000.0 0.002261009067296982 -0.001461164210923016
6012000000.0 0.0012090163072571158 -0.002353592310100794
6013000000.0 9.643825615057722e-05 -0.00255896826274693
6014000000.0 -0.0012422529980540276 -0.002232869155704975
6015000000.0 -0.0022897531744092703 -0.0013492716243490577
6016000000.0 -0.0025252692867070436 -0.00010430857946630567
6017000000.0 -0.0023529157042503357 0.0010011473204940557
6018000000.0 -0.0016676621744409204 0.0019416343420743942
6019000000.0 -0.00035476929042488337 0.002521582879126072
6020000000.0 0.0008884574635885656 0.00249834218993783
6021000000.0 0.001924897194840014 0.001809875131584704
6022000000.0 0.002319728722795844 0.0006549902027472854
6023000000.0 0.0024087249767035246 -0.0005275877774693072
6024000000.0 0.0019207969307899475 -0.0014355400344356894
6025000000.0 0.0009267105488106608 -0.0021159069146960974
6026000000.0 -0.0010591945610940456 -0.0035843132063746452
6027000000.0 -0.0015348828164860606 -0.002067482564598322
6028000000.0 -0.002194155938923359 -0.0010993346804752946
6029000000.0 -0.0024294774048030376 9.326508734375238e-05
6030000000.0 -0.001976174069568515 0.0012708661379292607
6031000000.0 -0.0008306861273013055 0.0019076188327744603
6032000000.0 -5.836174750584178e-05 0.0022774983663111925
6033000000.0 0.0008431875030510128 0.002257532672956586
6034000000.0 0.001754779601469636 0.0016922649228945374
6035000000.0 0.002435286296531558 0.0006746981525793672
6036000000.0 0.0024980453308671713 -0.0007140571251511574
6037000000.0 0.001987317344173789 -0.0018005536403506994
6038000000.0 0.0009452244266867638 -0.002513162326067686
6039000000.0 -0.0004961689119227231 -0.0028031645342707634
6040000000.0 -0.0016631222097203135 -0.002233375795185566
6041000000.0 -0.00247465493157506 -0.00097841233946383
6042000000.0 -0.002709730761125684 0.00014201061276253313
6043000000.0 -0.00227660546079278 0.0015926226042211056
6044000000.0 -0.0012954688863828778 0.0023630261421203613
6045000000.0 -0.00014427676796913147 0.00289378990419209
6046000000.0 0.0012509935768321157 0.002609318820759654
6047000000.0 0.002501905895769596 0.001703428104519844
6048000000.0 0.003030378371477127 0.00040114656439982355
6049000000.0 0.0029267501085996628 -0.0011204186594113708
6050000000.0 0.0019211015896871686 -0.0025431481190025806
6051000000.0 0.0005141756264492869 -0.0032408484257757664
6052000000.0 -0.001149898860603571 -0.0032116128131747246
6053000000.0 -0.0026118438690900803 -0.00219749310053885
6054000000.0 -0.003419051179662347 -0.0005467507871799171
6055000000.0 -0.003431635210290551 0.0012088203802704811
6056000000.0 -0.002278681844472885 0.002771192230284214
6057000000.0 -0.0007815604330971837 0.0036769488360732794
6058000000.0 0.0011966436868533492 0.0037462259642779827
6059000000.0 0.0031605970580130816 0.002629943424835801
6060000000.0 0.004226658958941698 0.0007717767148278654
6061000000.0 0.0043299938552081585 -0.0017123420257121325
6062000000.0 0.002756519941613078 -0.003957480192184448
6063000000.0 0.0002488803875166923 -0.005390667822211981
6064000000.0 -0.0035962422844022512 -0.006102155428379774
6065000000.0 -0.010112058371305466 -0.004106744658201933
6066000000.0 -0.008480535820126534 0.01967199519276619
6067000000.0 0.020032214000821114 0.004470709711313248
6068000000.0 0.0010355267440900207 -0.0052003879100084305
6069000000.0 -0.001773371361196041 -0.0020468351431190968
6070000000.0 -0.0019848907832056284 -8.117216930259019e-05
6071000000.0 -0.0011255709687247872 0.0010461381170898676
6072000000.0 -8.25449387775734e-05 0.00156146299559623
6073000000.0 0.0007575364434160292 0.001263145706616342
6074000000.0 0.0015111967222765088 0.000707946834154427
6075000000.0 0.0015248395502567291 -0.00015829630137886852
6076000000.0 0.0011797307524830103 -0.0010882761562243104
6077000000.0 0.0005263384082354605 -0.001681462861597538
6078000000.0 -0.00031195508199743927 -0.0014391475124284625
6079000000.0 -0.0011461093090474606 -0.0011895414208993316
6080000000.0 -0.0014661441091448069 -0.00043561437632888556
6081000000.0 -0.0016192042967304587 0.00038943145773373544
6082000000.0 -0.0013253113720566034 0.0010442662751302123
6083000000.0 -0.00072494923369959 0.0014305125223472714
6084000000.0 0.00023852181038819253 0.0016356253763660789
6085000000.0 0.0008862860850058496 0.001402642228640616
6086000000.0 0.001579776406288147 0.000722943339496851
6087000000.0 0.0016495316522195935 0.00014931385521776974
6088000000.0 0.0016492502763867378 -0.0008896053768694401
6089000000.0 0.0010191849432885647 -0.0013916690368205309
6090000000.0 0.00028242814005352557 -0.0018008253537118435
6091000000.0 -0.0006431907531805336 -0.001613988191820681
6092000000.0 -0.0014851415762677789 -0.0010799062438309193
6093000000.0 -0.0017426987178623676 -0.00038942310493439436
6094000000.0 -0.0018727664137259126 0.0005094142397865653
6095000000.0 -0.0011769620468840003 0.0013673559296876192
6096000000.0 -0.00047472689766436815 0.0017084701685234904
6097000000.0 0.00013781867164652795 0.0017740661278367043
6098000000.0 0.001327125122770667 0.0015791321638971567
6099000000.0 0.0017962530255317688 0.0007758731371723115
6100000000.0 0.002079965779557824 -3.346109588164836e-05
6101000000.0 0.00156627397518605 -0.0010700031416490674
6102000000.0 0.0012244547251611948 -0.0017128817271441221
6103000000.0 9.956621943274513e-05 -0.002054924611002207
6104000000.0 -0.000772765080910176 -0.0018285796977579594
6105000000.0 -0.0016486835666000843 -0.00147880834992975
6106000000.0 -0.0022293964866548777 -0.00021769256272818893
6107000000.0 -0.002269074320793152 0.0006669630529358983
6108000000.0 -0.001551337307319045 0.001940081361681223
6109000000.0 -0.0004051650466863066 0.002354792319238186
6110000000.0 0.0008209510124288499 0.002539843088015914
6111000000.0 0.001880223979242146 0.0018091205274686217
6112000000.0 0.002580152591690421 0.0005796888144686818
6113000000.0 0.002651659771800041 -0.0011168246855959296
6114000000.0 0.0018770674942061305 -0.0019886004738509655
6115000000.0 0.0004360171442385763 -0.002748718950897455
6116000000.0 -0.00105860095936805 -0.0025718638207763433
6117000000.0 -0.0022004626225680113 -0.0017202590825036168
6118000000.0 -0.002682182239368558 -0.0002745673409663141
6119000000.0 -0.0026980892289429903 0.001397974556311965
6120000000.0 -0.0015188066754490137 0.0025329631753265858
6121000000.0 0.00026721213362179697 0.0027132565155625343
6122000000.0 0.0017662306781858206 0.002249446464702487
6123000000.0 0.002413333160802722 0.0007079415372572839
6124000000.0 0.0024085468612611294 -0.000751359446439892
6125000000.0 0.0011754012666642666 -0.0017632610397413373
6126000000.0 -0.00016035142471082509 -0.0018798664677888155
6127000000.0 -0.0008767562685534358 -0.0011694042477756739
6128000000.0 -0.0012493241811171174 -0.00034260228858329356
6129000000.0 -0.0009997861925512552 3.214033495169133e-05
6130000000.0 -0.0007024966180324554 0.00022264025756157935
6131000000.0 -0.0005740617634728551 0.0002198614238295704
6132000000.0 -0.0005025541759096086 0.0003947477671317756
6133000000.0 -0.00042784371180459857 0.000433043809607625
6134000000.0 -0.00025791057851165533 0.000636909855529666
6135000000.0 -0.00015105458442121744 0.000621316023170948
6136000000.0 0.0003754418867174536 0.000813366612419486
6137000000.0 0.0007831047405488789 0.0006032541277818382
6138000000.0 0.0010581152746453881 0.00035978195955976844
6139000000.0 0.0007730418001301587 -0.00013856688747182488
6140000000.0 0.0009483044850639999 -0.0005732919089496136
6141000000.0 0.0005072727217338979 -0.0010026440722867846
6142000000.0 -5.615963527816348e-05 -0.0010072800796478987
6143000000.0 -0.0006501763127744198 -0.0010583542753010988
6144000000.0 -0.0011258770246058702 -0.0009238210623152554
6145000000.0 -0.0015073729446157813 -7.362677570199594e-05
6146000000.0 -0.0011661682510748506 0.0005520263803191483
6147000000.0 -0.0008824242977425456 0.0010169594315811992
6148000000.0 -0.0003598423791117966 0.0015672130975872278
6149000000.0 0.000500018591992557 0.0016453817952424288
6150000000.0 0.0012298657093197107 0.0013619378441944718
6151000000.0 0.0018185398075729609 0.00045376483467407525
6152000000.0 0.001610146020539105 -0.0005274047725833952
6153000000.0 0.0015056952834129333 -0.0015364406863227487
6154000000.0 0.000479422538774088 -0.0017186561599373817
6155000000.0 -0.000722105847671628 -0.0018621745985001326
6156000000.0 -0.0014887044671922922 -0.0013705684104934335
6157000000.0 -0.0020498798694461584 -0.0005362482625059783
6158000000.0 -0.002108856337144971 0.0008806839468888938
6159000000.0 -0.0012681650696322322 0.0018189341062679887
6160000000.0 0.00011520954285515472 0.0023521827533841133
6161000000.0 0.0011121202260255814 0.001830626861192286
6162000000.0 0.0018536667339503765 0.0009134482825174928
6163000000.0 0.0018353047780692577 -0.0005836346535943449
6164000000.0 0.0007585898274555802 -0.0016939002089202404
6165000000.0 -0.0002698355820029974 -0.001148753217421472
6166000000.0 -0.0007993008475750685 -0.0002271143312100321
6167000000.0 -0.00035560701508075 0.0005269956891424954
6168000000.0 0.00036867617745883763 0.0001877825561678037
6169000000.0 0.0006411663489416242 -0.00043931970139965415
6170000000.0 -0.0002352880110265687 -0.0007075152243487537
6171000000.0 -0.0006239968352019787 -0.0006154474103823304
6172000000.0 -0.0013007302768528461 -0.00017045126878656447
6173000000.0 -0.0013173085171729326 0.0005671930266544223
6174000000.0 -0.0008378644124604762 0.0014377693878486753
6175000000.0 1.2726964996545576e-05 0.0015872569056227803
6176000000.0 0.000984393758699298 0.0013751781079918146
6177000000.0 0.001713188481517136 0.0007014218135736883
6178000000.0 0.0017839657375589013 -4.6474015107378364e-05
6179000000.0 0.0014099781401455402 -0.0009620748460292816
6180000000.0 0.0007932123844511807 -0.0017376599134877324
6181000000.0 -0.00024962652241811156 -0.0019969691056758165
6182000000.0 -0.001185525325126946 -0.0015141925541684031
6183000000.0 -0.0020353246945887804 -0.0008526250603608787
6184000000.0 -0.0021475302055478096 0.0003941419126931578
6185000000.0 -0.0016856358852237463 0.0012048411881551147
6186000000.0 -0.0008928286843001842 0.0018157826270908117
6187000000.0 0.00032913434552028775 0.002042796928435564
6188000000.0 0.0012752939946949482 0.0016681170091032982
6189000000.0 0.001991396304219961 0.0006737929070368409
6190000000.0 0.0019255578517913818 -0.00023963587591424584
6191000000.0 0.0014862774405628443 -0.0013201134279370308
6192000000.0 0.0007822380284778774 -0.0017228156793862581
6193000000.0 -0.0002400038210907951 -0.0019996229093521833
6194000000.0 -0.0010009247343987226 -0.0016856974689289927
6195000000.0 -0.0016424697823822498 -0.0009293073671869934
6196000000.0 -0.0017732585547491908 3.140846820315346e-05
6197000000.0 -0.0013941326178610325 0.0008121341234073043
6198000000.0 -0.0009448461350984871 0.001630482729524374
6199000000.0 3.3695421279844595e-06 0.0016757113626226783
6200000000.0 0.0006996043375693262 0.001465648296289146
6201000000.0 0.0013716028770431876 0.0009594945586286485
6202000000.0 0.0015576619189232588 0.000303923268802464
6203000000.0 0.0016517810290679336 -0.00046937153092585504
6204000000.0 0.001307117403484881 -0.0012358813546597958
6205000000.0 0.0004956147167831659 -0.0018360096728429198
6206000000.0 -0.0004152321198489517 -0.0017268339870497584
6207000000.0 -0.0012000848073512316 -0.0013361016754060984
6208000000.0 -0.0016136469785124063 -0.0007302831509150565
6209000000.0 -0.0018211610149592161 0.000394235597923398
6210000000.0 -0.0015334555646404624 0.0011588865891098976
6211000000.0 -0.0006559977773576975 0.0018095329869538546
6212000000.0 0.00032066722633317113 0.0020805811509490013
6213000000.0 0.0014075477374717593 0.0016011986881494522
6214000000.0 0.0021896474063396454 0.0007346934289671481
6215000000.0 0.002316397614777088 -0.0006149881519377232
6216000000.0 0.0017342873616144061 -0.0018051441293209791
6217000000.0 0.00039506808388978243 -0.0024144260678440332
6218000000.0 -0.0011608913773670793 -0.0023719235323369503
6219000000.0 -0.0022681711707264185 -0.0011359306517988443
6220000000.0 -0.0026268884539604187 0.0004758249269798398
6221000000.0 -0.00158899265807122 0.002198080299422145
6222000000.0 -8.095701195998117e-05 0.0027690515853464603
6223000000.0 0.0017622311133891344 0.0020384236704558134
6224000000.0 0.0025728263426572084 0.0003014176618307829
6225000000.0 0.002007112605497241 -0.0014586523175239563
6226000000.0 0.0006530007813125849 -0.002292715013027191
6227000000.0 -0.0010941546643152833 -0.0018615477019920945
6228000000.0 -0.0018511736998334527 -0.0006370116025209427
6229000000.0 -0.0018008369952440262 0.0006041571614332497
6230000000.0 -0.0007317998679354787 0.0016482704086229205
6231000000.0 0.00045333176967687905 0.0016095665050670505
6232000000.0 0.0012775572249665856 0.0009777015075087547
6233000000.0 0.0015533179976046085 0.00011057750089094043
6234000000.0 0.0011422038078308105 -0.0008966869791038334
6235000000.0 0.0001392693811794743 -0.001301006181165576
6236000000.0 -0.0005805051769129932 -0.0013560696970671415
6237000000.0 -0.0011677710572257638 -0.0007668239995837212
6238000000.0 -0.0015592915005981922 -8.288200479000807e-05
6239000000.0 -0.0012251284206286073 0.0006123047205619514
6240000000.0 -0.000527287891600281 0.0012860604329034686
6241000000.0 0.00018818999524228275 0.0014008445432409644
6242000000.0 0.0008291543927043676 0.001007328275591135
6243000000.0 0.0013070969143882394 0.0006581853376701474
6244000000.0 0.0014519502874463797 -0.00011919035750906914
6245000000.0 0.001126778544858098 -0.0009145824005827308
6246000000.0 0.0006532341940328479 -0.00122204446233809
6247000000.0 -7.296319381566718e-05 -0.0014731799019500613
6248000000.0 -0.0009063314646482468 -0.0013211941113695502
6249000000.0 -0.0014605734031647444 -0.0004368865629658103
6250000000.0 -0.001524566556327045 0.00022424252529162914
6251000000.0 -0.001399183995090425 0.0009877239353954792
6252000000.0 -0.0007945243269205093 0.0014983208384364843
6253000000.0 0.00018710410222411156 0.0017873701872304082
6254000000.0 0.0010967415291815996 0.0013002631021663547
6255000000.0 0.0017187980702146888 0.0006555712316185236
6256000000.0 0.0018753864569589496 -0.0002952103386633098
6257000000.0 0.001281625241972506 -0.001279156655073166
6258000000.0 0.0005577808478847146 -0.0017667877255007625
6259000000.0 -0.0004494230088312179 -0.001873628469184041
6260000000.0 -0.0013518703635782003 -0.0012623609509319067
6261000000.0 -0.0018506692722439766 -0.0005477109807543457
6262000000.0 -0.0017641863087192178 0.0004472193249966949
6263000000.0 -0.0013799220323562622 0.0014444738626480103
6264000000.0 -0.00043523518252186477 0.0018983028130605817
6265000000.0 0.0007251683273352683 0.0015692532761022449
6266000000.0 0.0015617775497958064 0.0011869262671098113
6267000000.0 0.0018307871650904417 1.074454758054344e-05
6268000000.0 0.001727554714307189 -0.0008251958643086255
6269000000.0 0.0009355934453196824 -0.0013354539405554533
6270000000.0 -5.110440542921424e-05 -0.001574810827150941
6271000000.0 -0.0008155929972417653 -0.001165820169262588
6272000000.0 -0.0013129482977092266 -0.0006128743989393115
6273000000.0 -0.0012094468111172318 0.0002151904918719083
6274000000.0 -0.0008049701573327184 0.0007114994805306196
6275000000.0 -0.00028235287754796445 0.0010093767195940018
6276000000.0 0.00026241433806717396 0.0009690610459074378
6277000000.0 0.0007240946870297194 0.0007234117947518826
6278000000.0 0.000923573155887425 0.00013943971134722233
6279000000.0 0.0006819865084253252 -0.00032096891663968563
6280000000.0 0.0004648533067665994 -0.0004913137527182698
6281000000.0 0.0001583452831255272 -0.000488573859911412
6282000000.0 -0.00018600501061882824 -0.0003848835185635835
6283000000.0 -0.00015541059838142246 -2.099216771966894e-06
6284000000.0 7.471955177607015e-05 4.3861233280040324e-05
6285000000.0 9.155922452919185e-05 0.00016539562784601003
6286000000.0 0.00020641341689042747 6.828922778367996e-05
6287000000.0 8.085231820587069e-05 -0.00021044252207502723
6288000000.0 4.3389940401539207e-05 -0.00015387461462523788
6289000000.0 -0.00034524936927482486 -0.00022642381372861564
6290000000.0 -0.0004564653499983251 4.002890636911616e-05
6291000000.0 -0.00038392821443267167 0.0001442075299564749
6292000000.0 -0.0003320218238513917 0.000540396198630333
6293000000.0 -1.8479164282325655e-05 0.0005942697753198445
6294000000.0 0.0003718074585776776 0.0005164488684386015
6295000000.0 0.0006088293739594519 0.00038863252848386765
6296000000.0 0.0006822909926995635 -0.0002155652764486149
6297000000.0 0.0005732321878895164 -0.0004811375110875815
6298000000.0 0.00039842602564021945 -0.000675093091558665
6299000000.0 -6.020319233357441e-06 -0.00070808274904266
6300000000.0 -0.00039215575088746846 -0.0007205080473795533
6301000000.0 -0.000680101802572608 -0.00022027679369784892
6302000000.0 -0.0005211650859564543 -0.0003081673348788172
6303000000.0 -0.0006236602202989161 0.0001938804634846747
6304000000.0 -0.0005334375309757888 0.0005739591433666646
6305000000.0 -3.9169379306258634e-05 0.0007436815649271011
6306000000.0 0.0001821611513150856 0.0008240073220804334
6307000000.0 0.0005798562197014689 0.0006003236630931497
6308000000.0 0.0008271312690339983 0.00014386119437403977
6309000000.0 0.0007889866828918457 -0.00035305050550960004
6310000000.0 0.0006090404931455851 -0.0007102025556378067
6311000000.0 7.600666140206158e-05 -0.0007666951860301197
6312000000.0 -0.00036642924533225596 -0.0009324320708401501
6313000000.0 -0.000629996124189347 -0.0006523228948935866
6314000000.0 -0.0008653308032080531 -0.00011746936797862872
6315000000.0 -0.0008411122835241258 0.00030038104159757495
6316000000.0 -0.0006270006997510791 0.00056783965555951
6317000000.0 -0.0002588922798167914 0.0009360511903651059
6318000000.0 6.014418977429159e-05 0.0008066573063842952
6319000000.0 0.0006010350189171731 0.0005617167335003614
6320000000.0 0.0008185632759705186 0.00029300752794370055
6321000000.0 0.0007907746476121247 -0.00010525776451686397
6322000000.0 0.0005709716933779418 -0.0005887430743314326
6323000000.0 0.0001663979928707704 -0.0006564338109456003
6324000000.0 8.690613867656793e-06 -0.0006752526387572289
6325000000.0 -0.00029541197000071406 -0.00037239331868477166
6326000000.0 -0.0005025898572057486 -0.0001593690103618428
6327000000.0 -0.0004889483097940683 4.155150963924825e-05
6328000000.0 -0.00036882737185806036 0.0003820545971393585
6329000000.0 -0.000170409373822622 0.0002786461845971644
6330000000.0 0.00018738517246674746 0.00020219286670908332
6331000000.0 0.00012398189574014395 -2.2976468244451098e-05
6332000000.0 -0.00019582625827752054 -7.975270273163915e-05
6333000000.0 -0.00031986352405510843 7.768205250613391e-05
6334000000.0 -0.00023041134409140795 0.0005468345480039716
6335000000.0 0.00025477047893218696 0.0008691670373082161
6336000000.0 0.0007949085556901991 0.0004975767806172371
6337000000.0 0.0009604407823644578 -6.282766844378784e-05
6338000000.0 0.0007810044917277992 -0.0006502425530925393
6339000000.0 0.00022367259953171015 -0.0011229896917939186
6340000000.0 -0.0004415350849740207 -0.0010816470021381974
6341000000.0 -0.0010249732295051217 -0.0007473519071936607
6342000000.0 -0.0010771445231512189 -8.93503674888052e-05
6343000000.0 -0.0010254107182845473 0.00040583749068900943
6344000000.0 -0.0007175616337917745 0.0009008824126794934
6345000000.0 -8.10068377177231e-05 0.0010962991509586573
6346000000.0 0.0004373746633064002 0.0011004606494680047
6347000000.0 0.0008742102654650807 0.0008671888499520719
6348000000.0 0.0010109032737091184 0.00035648696939460933
6349000000.0 0.0012625049566850066 -0.00023857748601585627
6350000000.0 0.0009617205359973013 -0.000821059278678149
6351000000.0 0.0005689149256795645 -0.0010957980994135141
6352000000.0 -6.12827789154835e-05 -0.001327683450654149
6353000000.0 -0.0006169198313727975 -0.0012101707980036736
6354000000.0 -0.0011907542357221246 -0.0007913654553703964
6355000000.0 -0.001566799241118133 -7.449545955751091e-05
6356000000.0 -0.0014662992907688022 0.000650403555482626
6357000000.0 -0.000992440152913332 0.0014859030488878489
6358000000.0 -0.00020986399613320827 0.0018995936261489987
6359000000.0 0.0008541384595446289 0.0016430295072495937
6360000000.0 0.0016500120982527733 0.0010773433605208993
6361000000.0 0.0020474351476877928 1.603240889380686e-05
6362000000.0 0.001860449556261301 -0.0010163092520087957
6363000000.0 0.001093341619707644 -0.0018874254310503602
6364000000.0 -7.828354137018323e-05 -0.0021717434283345938
6365000000.0 -0.001163619919680059 -0.0018318591173738241
6366000000.0 -0.0020885260310024023 -0.0008482759003527462
6367000000.0 -0.002190572675317526 0.0003888912033289671
6368000000.0 -0.001705571310594678 0.0014328139368444681
6369000000.0 -0.0006226614350453019 0.002044195542111993
6370000000.0 0.0004850358818657696 0.0019371893722563982
6371000000.0 0.0014162937877699733 0.0013838795712217689
6372000000.0 0.001911159954033792 0.0004188295570202172
6373000000.0 0.0018098142463713884 -0.000570403877645731
6374000000.0 0.001224233885295689 -0.0013272969517856836
6375000000.0 0.0002965069143101573 -0.0016277367249131203
6376000000.0 -0.0005000720848329365 -0.0013894515577703714
6377000000.0 -0.0010602370603010058 -0.0009808976901695132
6378000000.0 -0.0012722030514851213 -0.0003512518887873739
6379000000.0 -0.0012452400987967849 0.0003616517351474613
6380000000.0 -0.0009262553066946566 0.0008168985368683934
6381000000.0 -0.00040969779365696013 0.0011764533119276166
6382000000.0 0.0002178721915697679 0.0011252221884205937
6383000000.0 0.000631117494776845 0.0009235519100911915
6384000000.0 0.0009705593693070114 0.00041980823152698576
6385000000.0 0.0009740779059939086 -0.0001576336071593687
6386000000.0 0.0008626410271972418 -0.0005141667788848281
6387000000.0 0.0005133214290253818 -0.0008538155234418809
6388000000.0 -3.687535718199797e-05 -0.0008064378052949905
6389000000.0 -0.00040714212809689343 -0.0006218970520421863
6390000000.0 -0.0006417606491595507 -0.00024347212456632406
6391000000.0 -0.0006568912649527192 2.037696867773775e-05
6392000000.0 -0.0003718085354194045 0.0002536373503971845
6393000000.0 -0.00010115002805832773 0.0003455920668784529
6394000000.0 0.00016238221724051982 0.0002411299938103184
6395000000.0 8.149698987836018e-05 1.4446748537011445e-05
6396000000.0 -1.2800104741472751e-05 -8.245869685197249e-05
6397000000.0 -0.00013529254647437483 0.00010377822036389261
6398000000.0 -0.00014018673391547054 0.00025647817528806627
6399000000.0 2.3175398382591084e-06 0.0004191263287793845
6400000000.0 0.0002200150629505515 0.00046518747694790363
6401000000.0 0.0006065310444682837 0.0002396218478679657
6402000000.0 0.0007881495985202491 -8.937275561038405e-05
6403000000.0 0.0006827473407611251 -0.0004249775083735585
6404000000.0 0.00025682669365778565 -0.0008544644806534052
6405000000.0 -6.061551903258078e-05 -0.0009725544368848205
6406000000.0 -0.0005532674840651453 -0.0008438871591351926
6407000000.0 -0.0010291148209944367 -0.0004339582228567451
6408000000.0 -0.0011818420607596636 6.239972572075203e-05
6409000000.0 -0.001065049902535975 0.0007625316502526402
6410000000.0 -0.000615168537478894 0.001263765268959105
6411000000.0 0.00015929059009067714 0.001533268834464252
6412000000.0 0.0008848233264870942 0.0012092810356989503
6413000000.0 0.0015014137607067823 0.0006146400119177997
6414000000.0 0.0017000744119286537 -0.0001157036967924796
6415000000.0 0.0014288685051724315 -0.0010386524954810739
6416000000.0 0.0007283228333108127 -0.0016348366625607014
6417000000.0 -0.000362462509656325 -0.0018635258311405778
6418000000.0 -0.0011410778388381004 -0.0014587438199669123
6419000000.0 -0.0017705947393551469 -0.0006617229664698243
6420000000.0 -0.0018774111522361636 0.000333001691615209
6421000000.0 -0.0014151929644867778 0.0012296675704419613
6422000000.0 -0.0005541678983718157 0.0017748224781826138
6423000000.0 0.00032080349046736956 0.0018339728703722358
6424000000.0 0.0011588153429329395 0.0013957800110802054
6425000000.0 0.001663575298152864 0.0006338742095977068
6426000000.0 0.0017237757565453649 -0.00032423599623143673
6427000000.0 0.0013637664960697293 -0.0010985987028107047
6428000000.0 0.0006470086518675089 -0.0015581576153635979
6429000000.0 -0.00011480748798931018 -0.0016978547209873796
6430000000.0 -0.0008944930741563439 -0.001342887058854103
6431000000.0 -0.0014576789690181613 -0.0008616144768893719
6432000000.0 -0.0016630181344226003 3.189330891473219e-05
6433000000.0 -0.001438378356397152 0.0006611566641367972
6434000000.0 -0.0008181440643966198 0.001259209355339408
6435000000.0 -0.00021263468079268932 0.0015275123296305537
6436000000.0 0.0005083158030174673 0.0014344389783218503
6437000000.0 0.0011180327273905277 0.0010863648494705558
6438000000.0 0.0015053198440000415 0.0004713438102044165
6439000000.0 0.0015673255547881126 -0.00035771692637354136
6440000000.0 0.0012611676938831806 -0.0010358431609347463
6441000000.0 0.0006621748907491565 -0.0014852059539407492
6442000000.0 -0.00015844180597923696 -0.001599325449205935
6443000000.0 -0.0007921686628833413 -0.0014188806526362896
6444000000.0 -0.0015300980303436518 -0.0008483253186568618
6445000000.0 -0.0019275505328550935 6.968439993215725e-05
6446000000.0 -0.0015039429999887943 0.0008392077870666981
6447000000.0 -0.0009434327948838472 0.0015817165840417147
6448000000.0 -0.00017112295608967543 0.0017970316112041473
6449000000.0 0.0007683709263801575 0.001626255689188838
6450000000.0 0.0013946433318778872 0.0010785864433273673
6451000000.0 0.0017579561099410057 0.00021601574553642422
6452000000.0 0.0018113540718331933 -0.0005930308252573013
6453000000.0 0.0012702441308647394 -0.0013765402836725116
6454000000.0 0.00045639253221452236 -0.0018209957052022219
6455000000.0 -0.0004698899283539504 -0.0018261712975800037
6456000000.0 -0.0013026344822719693 -0.001361474976874888
6457000000.0 -0.0018318856600672007 -0.0005299682379700243
6458000000.0 -0.0019335753750056028 0.00042140186997130513
6459000000.0 -0.001454103272408247 0.0012611979618668556
6460000000.0 -0.000633330550044775 0.001821161713451147
6461000000.0 0.0002825123956426978 0.001957522239536047
6462000000.0 0.001285731908865273 0.001451111980713904
6463000000.0 0.0016920601483434439 0.0006545913056470454
6464000000.0 0.0018513108370825648 -0.0001167911832453683
6465000000.0 0.0015251848381012678 -0.0010129824513569474
6466000000.0 0.0009315672214142978 -0.0016186621505767107
6467000000.0 7.335402915487066e-05 -0.0018911906518042088
6468000000.0 -0.0009193953010253608 -0.0017834892496466637
6469000000.0 -0.001682054135017097 -0.00103700440376997
6470000000.0 -0.0019490268314257264 -8.136660471791402e-05
6471000000.0 -0.0017663711914792657 0.0008634750847704709
6472000000.0 -0.0011343264486640692 0.00170608377084136
6473000000.0 -9.478412539465353e-05 0.0022193174809217453
6474000000.0 0.0009837381076067686 0.0018797533120959997
6475000000.0 0.0018615638837218285 0.0011575822718441486
6476000000.0 0.002178844530135393 6.525390926981345e-05
6477000000.0 0.001840272918343544 -0.0010100231738761067
6478000000.0 0.0011023377301171422 -0.0018473801901564002
6479000000.0 -3.075997665291652e-05 -0.0020200558938086033
6480000000.0 -0.0011011981405317783 -0.001802323036827147
6481000000.0 -0.001750982366502285 -0.000904299202375114
6482000000.0 -0.002042455831542611 0.000164819837664254
6483000000.0 -0.0016038086032494903 0.0011368227424100041
6484000000.0 -0.0007852081907913089 0.0017508319579064846
6485000000.0 0.0003579094191081822 0.001861759228631854
6486000000.0 0.001287019462324679 0.0013024259824305773
6487000000.0 0.0016880497569218278 0.00043647363781929016
6488000000.0 0.0015978699084371328 -0.0006398946861736476
6489000000.0 0.0008229544619098306 -0.0013312266673892736
6490000000.0 -9.655073517933488e-05 -0.0014754749136045575
6491000000.0 -0.0008746917592361569 -0.0009772032499313354
6492000000.0 -0.001039620372466743 -0.00010696987010305747
6493000000.0 -0.0006974461139179766 0.0006065731286071241
6494000000.0 -4.9399295676266775e-05 0.0007429853430949152
6495000000.0 0.0003559918550308794 0.00045823815162293613
6496000000.0 0.0005179815925657749 -5.071413397672586e-05
6497000000.0 0.0002615605480968952 -0.0005240298341959715
6498000000.0 -0.0001452172000426799 -0.0003818534314632416
6499000000.0 -0.0005836880300194025 -0.0001872182619990781
6500000000.0 -0.0006491464446298778 0.00012175935989944264
6501000000.0 -0.000370321940863505 0.0005421481910161674
6502000000.0 -7.302688118215883e-06 0.0008158574928529561
6503000000.0 0.0004414448339957744 0.0007303550955839455
6504000000.0 0.0009212407167069614 0.00041671565850265324
6505000000.0 0.0010189692256972194 -0.0002196170826209709
6506000000.0 0.0007452062563970685 -0.0007511170697398484
6507000000.0 0.00023715895076747984 -0.0009603992803022265
6508000000.0 -0.0002942455466836691 -0.0010364699410274625
6509000000.0 -0.0007400921895168722 -0.0007824270287528634
6510000000.0 -0.001179159851744771 -0.0002446295111440122
6511000000.0 -0.0010749617358669639 0.0002781650982797146
6512000000.0 -0.0008809847058728337 0.0007756924605928361
6513000000.0 -0.00036071683280169964 0.0011701699113473296
6514000000.0 0.0002178778377128765 0.0012222342193126678
6515000000.0 0.0007768924697302282 0.0009058634168468416
6516000000.0 0.0011035294737666845 0.000439951109001413
6517000000.0 0.0013165990822017193 -0.00021640857448801398
6518000000.0 0.0011634971015155315 -0.0008560223504900932
6519000000.0 0.00045551994116976857 -0.001242451835423708
6520000000.0 -0.0002146763727068901 -0.0013962340308353305
6521000000.0 -0.000771248945966363 -0.0011696204310283065
6522000000.0 -0.0012289098231121898 -0.0006822815630584955
6523000000.0 -0.00153221539221704 5.9939062339253724e-05
6524000000.0 -0.0013550847070291638 0.0007448185933753848
6525000000.0 -0.00077022984623909 0.0013738058041781187
6526000000.0 -9.709139703772962e-05 0.0015621035126969218
6527000000.0 0.0007193119963631034 0.0014597555855289102
6528000000.0 0.0014038305962458253 0.0009676669142208993
6529000000.0 0.0017026838613674045 0.0001884782686829567
6530000000.0 0.0015411481726914644 -0.00072627974441275
6531000000.0 0.0009949849918484688 -0.0014285941142588854
6532000000.0 0.00023413905000779778 -0.0017387343104928732
6533000000.0 -0.0007287755142897367 -0.0016040942864492536
6534000000.0 -0.0014786471147090197 -0.0010250312043353915
6535000000.0 -0.001699821325019002 -0.0001841526391217485
6536000000.0 -0.0016530373832210898 0.0005818332429043949
6537000000.0 -0.0009844922460615635 0.0014106682501733303
6538000000.0 -0.0001868480903794989 0.0018105991184711456
6539000000.0 0.0005992133519612253 0.0016010169638320804
6540000000.0 0.0013596235075965524 0.0011073147179558873
6541000000.0 0.001677229069173336 0.0002900229883380234
6542000000.0 0.0015324451960623264 -0.0005384775577113032
6543000000.0 0.0011189859360456467 -0.0011806745314970613
6544000000.0 0.0003376983222551644 -0.0014173516537994146
6545000000.0 -0.00034605799010023475 -0.0015929843066260219
6546000000.0 -0.0010887598618865013 -0.0011547511676326394
6547000000.0 -0.0015123768243938684 -0.0004975962219759822
6548000000.0 -0.0015184113290160894 0.00041130121098831296
6549000000.0 -0.0012482183519750834 0.0009631336433812976
6550000000.0 -0.000611289928201586 0.001298307441174984
6551000000.0 0.000170295694260858 0.0015605041990056634
6552000000.0 0.0008388477144762874 0.0012099241139367223
6553000000.0 0.0012988762464374304 0.0006951356190256774
6554000000.0 0.0014651742530986667 0.00012483180034905672
6555000000.0 0.001277521369047463 -0.0005626280326396227
6556000000.0 0.0008488784078508615 -0.001012078719213605
6557000000.0 0.00027808017330244184 -0.0014006077544763684
6558000000.0 -0.0003624404198490083 -0.0012487596832215786
6559000000.0 -0.0010674584191292524 -0.0009990964317694306
6560000000.0 -0.0012658833293244243 -0.00038160927942954004
6561000000.0 -0.001401611720211804 0.0003039926814381033
6562000000.0 -0.0010949688730761409 0.0008377949125133455
6563000000.0 -0.0005450064782053232 0.0012396213132888079
6564000000.0 0.00012114346463931724 0.0013616255018860102
6565000000.0 0.0006045958143658936 0.0012566442601382732
6566000000.0 0.0011585820466279984 0.0007544642430730164
6567000000.0 0.0014982998836785555 7.042322977213189e-05
6568000000.0 0.001316217239946127 -0.0006534361746162176
6569000000.0 0.0007878731121309102 -0.001161402091383934
6570000000.0 0.00030016127857379615 -0.001405720366165042
6571000000.0 -0.00045851190225221217 -0.00142849946860224
6572000000.0 -0.0010579896625131369 -0.001148640876635909
6573000000.0 -0.0013457982568070292 -0.000428017636295408
6574000000.0 -0.0015330723254010081 0.0002649506204761565
6575000000.0 -0.0012394384248182178 0.0009631588472984731
6576000000.0 -0.0007615010836161673 0.001359966117888689
6577000000.0 4.13860943808686e-05 0.0017881985986605287
6578000000.0 0.0008885987335816026 0.0014836167683824897
6579000000.0 0.0015315578784793615 0.0008950939518399537
6580000000.0 0.001954221399500966 9.242408850695938e-05
6581000000.0 0.0018463308224454522 -0.0008014668710529804
6582000000.0 0.0011860971571877599 -0.0017479296075180173
6583000000.0 0.0002062848216155544 -0.0022764410823583603
6584000000.0 -0.001213554060086608 -0.0020206356421113014
6585000000.0 -0.002155356341972947 -0.0011651379754766822
6586000000.0 -0.0024513823445886374 7.289009226951748e-05
6587000000.0 -0.002072826726362109 0.0012891232036054134
6588000000.0 -0.001037732814438641 0.002347154077142477
6589000000.0 0.00031373495585285127 0.0025023205671459436
6590000000.0 0.0014979246770963073 0.0019706403836607933
6591000000.0 0.002336986130103469 0.0008469613967463374
6592000000.0 0.002367079257965088 -0.0004779828304890543
6593000000.0 0.0016717462567612529 -0.0016295408131554723
6594000000.0 0.0007101933588273823 -0.002203446812927723
6595000000.0 -0.000557402556296438 -0.00209788721986115
6596000000.0 -0.0015065836487337947 -0.001390417106449604
6597000000.0 -0.0019260301487520337 -0.0005353938904590905
6598000000.0 -0.0017810954013839364 0.0005886518047191203
6599000000.0 -0.0013080559438094497 0.001234516385011375
6600000000.0 -0.00039603764889761806 0.0017365216044709086
6601000000.0 0.0005354214808903635 0.001595982233993709
6602000000.0 0.001004567719064653 0.001155824982561171
6603000000.0 0.001393988262861967 0.00036199638270772994
6604000000.0 0.0014764786465093493 -0.000383164850063622
6605000000.0 0.0009000943973660469 -0.001025845529511571
6606000000.0 0.0002886317961383611 -0.0011494940845295787
6607000000.0 -0.00029837724287062883 -0.0011408827267587185
6608000000.0 -0.0007445219089277089 -0.0007150866440497339
6609000000.0 -0.0009630556451156735 -0.0002820721419993788
6610000000.0 -0.0008669043891131878 0.00030225346563383937
6611000000.0 -0.0006600143387913704 0.0005815724725835025
6612000000.0 -0.0001756230922183022 0.0006129987305030227
6613000000.0 5.473320197779685e-05 0.0005871435860171914
6614000000.0 0.00022955647727940232 0.0004778154252562672
6615000000.0 0.00028072803979739547 0.00036691437708213925
6616000000.0 0.00036113869282417 0.0001555012131575495
6617000000.0 0.00047060856013558805 9.96449452941306e-05
6618000000.0 0.0003052877145819366 -0.00010137919889530167
6619000000.0 0.00032154060318134725 -0.00016106698603834957
6620000000.0 0.00027178911841474473 -0.0003671114973258227
6621000000.0 7.298237323993817e-05 -0.0005069448379799724
6622000000.0 -0.00011286283552180976 -0.0005837786011397839
6623000000.0 -0.0002992149966303259 -0.00038895037141628563
6624000000.0 -0.000419528572820127 -0.0002872913610190153
6625000000.0 -0.0005568295600824058 8.47622868604958e-05
6626000000.0 -0.00048191274981945753 0.00031801845761947334
6627000000.0 -0.0003443319001235068 0.00048700891784392297
6628000000.0 -0.00020470577874220908 0.0006994522409513593
6629000000.0 0.00014018555521033704 0.0005305791273713112
6630000000.0 0.0004178156959824264 0.0004149859305471182
6631000000.0 0.000591229647397995 0.00018265839025843889
6632000000.0 0.0007172206533141434 -3.430870856391266e-05
6633000000.0 0.0005763277877122164 -0.00034368119668215513
6634000000.0 0.0003112954436801374 -0.0005925291334278882
6635000000.0 3.333883796585724e-05 -0.000768813828472048
6636000000.0 -0.000377465010387823 -0.0007425678777508438
6637000000.0 -0.0007243184954859316 -0.000634646974503994
6638000000.0 -0.000969512271694839 -0.00017911374743562192
6639000000.0 -0.000960547651629895 0.00030140430317260325
6640000000.0 -0.0007735818508081138 0.000790238322224468
6641000000.0 -0.0002662467595655471 0.0009586283704265952
6642000000.0 0.00011489878670545295 0.0010596017818897963
6643000000.0 0.0006763311102986336 0.000878905295394361
6644000000.0 0.001186842331662774 0.00028665148420259356
6645000000.0 0.0011347378604114056 -0.00026874366449192166
6646000000.0 0.0008332233992405236 -0.0005672741681337357
6647000000.0 0.0004083580570295453 -0.0011536694364622235
6648000000.0 -0.00012808103929273784 -0.0012367740273475647
6649000000.0 -0.0007453248836100101 -0.001018594834022224
6650000000.0 -0.0011698913294821978 -0.00037166557740420103
6651000000.0 -0.0012228075647726655 0.00022600516967941076
6652000000.0 -0.0008709427784197032 0.0008022029651328921
6653000000.0 -0.0003925088676624 0.0010496692266315222
6654000000.0 0.00015926241758279502 0.0010305269388481975
6655000000.0 0.0005521316197700799 0.0008754393784329295
6656000000.0 0.0008915668004192412 0.0004981475649401546
6657000000.0 0.000912240706384182 -1.0198198651778512e-05
6658000000.0 0.0008701642509549856 -0.0005117203108966351
6659000000.0 0.000548697542399168 -0.0007827082299627364
6660000000.0 4.6260873205028474e-05 -0.0008885531569831073
6661000000.0 -0.0004058720951434225 -0.0007853147108107805
6662000000.0 -0.0007522340165451169 -0.0005475052748806775
6663000000.0 -0.0008298993343487382 -0.0002827166754286736
6664000000.0 -0.0008425632258877158 0.00020459989900700748
6665000000.0 -0.000544469163287431 0.0005945453303866088
6666000000.0 -0.0004026886890642345 0.0008380606304854155
6667000000.0 3.916724745067768e-05 0.0007668383768759668
6668000000.0 0.00039970112266018987 0.0007787615759298205
6669000000.0 0.0006660547223873436 0.0005734983133152127
6670000000.0 0.0007544020190834999 9.852330549620092e-05
6671000000.0 0.0009139393223449588 -0.0002146677579730749
6672000000.0 0.0006514842971228063 -0.0004200988623779267
6673000000.0 0.0004139233788009733 -0.000777269946411252
6674000000.0 -1.501551378169097e-05 -0.0007966606644913554
6675000000.0 -0.00040886408532969654 -0.0008405769476667047
6676000000.0 -0.0007711540092714131 -0.0005836200434714556
6677000000.0 -0.0009517167345620692 -0.00012874981621280313
6678000000.0 -0.0009732834878377616 0.00025630471645854414
6679000000.0 -0.0008554800297133625 0.0007270969217643142
6680000000.0 -0.0005299928598105907 0.0011130268685519695
6681000000.0 0.00015812124183867127 0.001273000962100923
6682000000.0 0.0007771554519422352 0.0011360830394551158
6683000000.0 0.001178146805614233 0.0006714460905641317
6684000000.0 0.0014549031620845199 -2.1159481548238546e-05
6685000000.0 0.001379369175992906 -0.0005931177292950451
6686000000.0 0.0010399975581094623 -0.001340969349257648
6687000000.0 0.00026163883740082383 -0.0017424860270693898
6688000000.0 -0.0006281276000663638 -0.0015978736337274313
6689000000.0 -0.0015528846997767687 -0.0011799130588769913
6690000000.0 -0.002032490912824869 -0.0001814027054933831
6691000000.0 -0.0017972923815250397 0.0008397087221965194
6692000000.0 -0.0011987074976786971 0.0016786792548373342
6693000000.0 -0.00012256947229616344 0.0022859624586999416
6694000000.0 0.0009757261723279953 0.0020198149140924215
6695000000.0 0.0018291197484359145 0.0011871333699673414
6696000000.0 0.002188741695135832 0.00012483847967814654
6697000000.0 0.0020144933369010687 -0.0009367422317154706
6698000000.0 0.0013246836606413126 -0.001788474852219224
6699000000.0 0.00040805464959703386 -0.002261773683130741
6700000000.0 -0.000900037179235369 -0.0023830158170312643
6701000000.0 -0.0019934664014726877 -0.0016632594633847475
6702000000.0 -0.0025128284469246864 -0.00026944460114464164
6703000000.0 -0.0025528338737785816 0.0011473768390715122
6704000000.0 -0.0015308638103306293 0.002296438440680504
6705000000.0 5.696226435247809e-05 0.002801033901050687
6706000000.0 0.0013921709032729268 0.0023545152507722378
6707000000.0 0.002623347332701087 0.0011234942357987165
6708000000.0 0.002575499704107642 -0.0004187877057120204
6709000000.0 0.001956791849806905 -0.001476591220125556
6710000000.0 0.000731066451407969 -0.0024263006635010242
6711000000.0 -0.0007107702549546957 -0.0020936126820743084
6712000000.0 -0.001602671225555241 -0.001489792251959443
6713000000.0 -0.0020573840010911226 -0.0003543099737726152
6714000000.0 -0.0017266878858208656 0.0006123053026385605
6715000000.0 -0.0009796038502827287 0.0012419637059792876
6716000000.0 -0.0001852655113907531 0.0014519169926643372
6717000000.0 0.0006941157043911517 0.0012685979017987847
6718000000.0 0.0009632546571083367 0.0007783534238114953
6719000000.0 0.0010621922556310892 -4.316558624850586e-05
6720000000.0 0.0005870715249329805 -0.00036196160363033414
6721000000.0 0.00023910145682748407 -0.0004301029839552939
6722000000.0 -6.92988614900969e-05 -0.00026213578530587256
6723000000.0 -9.309873712481931e-05 0.00011109902698080987
6724000000.0 0.00033904187148436904 0.00010001942428061739
6725000000.0 0.0003894892579410225 -0.0002561878936830908
6726000000.0 0.00038397012394852936 -0.0005439521046355367
6727000000.0 6.385290180332959e-05 -0.0008587183547206223
6728000000.0 -0.0005393249448388815 -0.000734408968128264
6729000000.0 -0.0010938661871477962 -0.0003682797832880169
6730000000.0 -0.0012688355054706335 0.00025830671074800193
6731000000.0 -0.0010319150751456618 0.0008971955976448953
6732000000.0 -0.00042386705172248185 0.0014333148719742894
6733000000.0 0.00038990515167824924 0.0014006810961291194
6734000000.0 0.0009690815350040793 0.00105478975456208
6735000000.0 0.0014930416364222765 0.0003794662479776889
6736000000.0 0.001516226795502007 -0.00030055103707127273
6737000000.0 0.0010665992740541697 -0.001112225465476513
6738000000.0 0.0004960772348567843 -0.001592240878380835
6739000000.0 -0.0003625219687819481 -0.0015245138201862574
6740000000.0 -0.0011601143050938845 -0.0013887855457141995
6741000000.0 -0.0014728190144523978 -0.0008125610183924437
6742000000.0 -0.0017370813293382525 0.00026720232563093305
6743000000.0 -0.0014706692891195416 0.0009201173670589924
6744000000.0 -0.0008346956456080079 0.0016914596781134605
6745000000.0 -2.1553812985075638e-05 0.0019853690173476934
6746000000.0 0.001030800398439169 0.0017797190230339766
6747000000.0 0.002060328144580126 0.0010149875888600945
6748000000.0 0.0023361886851489544 6.160775228636339e-05
6749000000.0 0.0021909528877586126 -0.0012426304165273905
6750000000.0 0.0012023330200463533 -0.002215852728113532
6751000000.0 -2.0408075215527788e-05 -0.0026207352057099342
6752000000.0 -0.0013156081549823284 -0.002254435559734702
6753000000.0 -0.0023992022033780813 -0.0013945939717814326
6754000000.0 -0.0027740744408220053 0.0001723914610920474
6755000000.0 -0.0023898729123175144 0.0015549163799732924
6756000000.0 -0.001302404678426683 0.002598657039925456
6757000000.0 0.000236469684750773 0.0027803333941847086
6758000000.0 0.0016630423488095403 0.002389201894402504
6759000000.0 0.0025137984193861485 0.0011424137046560645
6760000000.0 0.0027825571596622467 -0.00024488350027240813
6761000000.0 0.002224910305812955 -0.0017898938385769725
6762000000.0 0.0009618814801797271 -0.002571307122707367
6763000000.0 -0.000392078043660149 -0.0026089996099472046
6764000000.0 -0.0015511525562033057 -0.0021427436731755733
6765000000.0 -0.002366741420701146 -0.0011926689185202122
6766000000.0 -0.002508373698219657 0.000192782303201966
6767000000.0 -0.002049457747489214 0.0014908055309206247
6768000000.0 -0.0009523110929876566 0.0019141875673085451
6769000000.0 7.616546645294875e-05 0.0023911320604383945
6770000000.0 0.0011040084064006805 0.0019370259251445532
6771000000.0 0.0018659275956451893 0.0012540217721834779
6772000000.0 0.0022583415266126394 0.0002622542669996619
6773000000.0 0.0019772094674408436 -0.0008077602251432836
6774000000.0 0.001324856304563582 -0.0016577948117628694
6775000000.0 0.0003154155274387449 -0.002037320751696825
6776000000.0 -0.000683516904246062 -0.0020108914468437433
6777000000.0 -0.001613892032764852 -0.0013385640922933817
6778000000.0 -0.0018898657290264964 -0.0002699124743230641
6779000000.0 -0.002005703514441848 0.0005598842981271446
6780000000.0 -0.0013268303591758013 0.0014416463673114777
6781000000.0 -0.00043020854354836047 0.0019534416496753693
6782000000.0 0.000546775758266449 0.0018940037116408348
6783000000.0 0.001344812917523086 0.0013794483384117484
6784000000.0 0.0016424094792455435 0.0007108536665327847
6785000000.0 0.0019204268464818597 -0.0002550135541241616
6786000000.0 0.0015122462064027786 -0.001016675028949976
6787000000.0 0.0008115525706671178 -0.0016855945577844977
6788000000.0 -0.000117136376502458 -0.002014217898249626
6789000000.0 -0.0010212233755737543 -0.001704022171907127
6790000000.0 -0.001713267294690013 -0.0011585361789911985
6791000000.0 -0.002072914969176054 -5.458001032820903e-05
6792000000.0 -0.0019010158721357584 0.0009720172383822501
6793000000.0 -0.0010904375230893493 0.0019318704726174474
6794000000.0 -4.8211302782874554e-05 0.002386563690379262
6795000000.0 0.0010333862155675888 0.001964528812095523
6796000000.0 0.002072148723527789 0.0009764090063981712
6797000000.0 0.002325094537809491 -9.151448466582224e-05
6798000000.0 0.0019406018545851111 -0.0014902872499078512
6799000000.0 0.0008115140371955931 -0.002362553495913744
6800000000.0 -0.0004973778850398958 -0.0025518133770674467
6801000000.0 -0.0017778100445866585 -0.0015828082105144858
6802000000.0 -0.00230886391364038 -0.0004106425622012466
6803000000.0 -0.0020054231863468885 0.0012529155937954783
6804000000.0 -0.0009151835693046451 0.0020112779457122087
6805000000.0 0.00039749391726218164 0.0018786893924698234
6806000000.0 0.0014238775474950671 0.0009348671301268041
6807000000.0 0.0016233378555625677 1.8751201423583552e-05
6808000000.0 0.0010842292103916407 -0.0008073775097727776
6809000000.0 0.00039428556920029223 -0.0011575454846024513
6810000000.0 -0.00024003339058253914 -0.0009344589780084789
6811000000.0 -0.0006534114363603294 -0.0002902236592490226
6812000000.0 -0.0005262431805022061 -3.897598435287364e-05
6813000000.0 -0.0002668482775334269 0.0002972841029986739
6814000000.0 4.802995681529865e-05 0.00024288603162858635
6815000000.0 0.0001071672304533422 6.55269977869466e-05
6816000000.0 0.0001156802027253434 -0.00013997206406202167
6817000000.0 -9.693401807453483e-05 -0.0001256876566912979
6818000000.0 -0.00026878350763581693 -6.860659777885303e-05
6819000000.0 -0.00030160651658661664 0.00011116107634734362
6820000000.0 -4.924465611111373e-05 0.00024749161093495786
6821000000.0 -6.896416743984446e-05 0.00026056080241687596
6822000000.0 0.0001374609855702147 0.00020192157535348088
6823000000.0 0.00010283724259352311 6.415630923584104e-05
6824000000.0 0.0003960187896154821 0.0001278669951716438
6825000000.0 0.0002520073321647942 -0.00022316108515951782
6826000000.0 0.00012113710545236245 -0.0003389087214600295
6827000000.0 -7.581499085063115e-05 -0.0001268265041289851
6828000000.0 -0.00010403023770777509 -5.035513095208444e-05
6829000000.0 -0.00033432734198868275 0.00012525303463917226
6830000000.0 -0.00020455018966458738 1.9696644812938757e-05
6831000000.0 -0.00010943712550215423 3.397585533093661e-05
6832000000.0 7.528009882662445e-05 0.00010283112351316959
6833000000.0 2.7543663236428984e-05 2.1874780941288918e-05
6834000000.0 8.639143925393e-05 -5.049781975685619e-05
6835000000.0 -0.00013748943456448615 2.2392054233932868e-05
6836000000.0 -0.00017779266636352986 2.6905210688710213e-05
6837000000.0 -7.36974980100058e-05 9.161401976598427e-05
6838000000.0 8.00920752226375e-05 0.000269182346528396
6839000000.0 6.761390977771953e-05 0.00037226075073704123
6840000000.0 0.0004566869174595922 0.00010745369945652783
6841000000.0 0.0003788757021538913 -0.00020632597443182021
6842000000.0 0.00038550689350813627 -0.00047772808466106653
6843000000.0 0.00013713694352190942 -0.000516789557877928
6844000000.0 -0.00026142047136090696 -0.0005693832063116133
6845000000.0 -0.0006225274410098791 -0.0004245141753926873
6846000000.0 -0.0007809121161699295 -0.00016193553165066987
6847000000.0 -0.0006783588323742151 0.0004057616170030087
6848000000.0 -0.00045628700172528625 0.000842948560602963
6849000000.0 -6.217166810529307e-05 0.0008581294096074998
6850000000.0 0.0002819781075231731 0.0008247510413639247
6851000000.0 0.0009223191300407052 0.0004080538637936115
6852000000.0 0.0007932526641525328 0.00012252788292244077
6853000000.0 0.0009700200171209872 -0.0004761063028126955
6854000000.0 0.0005019137170165777 -0.0008359809871762991
6855000000.0 -9.226791007677093e-06 -0.0010402374900877476
6856000000.0 -0.0004481095529627055 -0.0006361390114761889
6857000000.0 -0.0009897995041683316 -0.0005048156599514186
6858000000.0 -0.0008417820790782571 -1.4536145499732811e-05
6859000000.0 -0.0007435012958012521 0.0005766249960288405
6860000000.0 -0.0004307492054067552 0.000726768746972084
6861000000.0 -0.00013213924830779433 0.0009426544420421124
6862000000.0 0.00035321086761541665 0.0007997653447091579
6863000000.0 0.0009398991824127734 0.0006366344750858843
6864000000.0 0.0009546742076054215 0.00027045689057558775
6865000000.0 0.0009499923908151686 -0.000500972440931946
6866000000.0 0.0005777435726486146 -0.0009564883657731116
6867000000.0 0.0001694316597422585 -0.0012109597446396947
6868000000.0 -0.0005887089064344764 -0.000898985774256289
6869000000.0 -0.0011276776203885674 -0.0005457229563035071
6870000000.0 -0.001154179684817791 0.00022790282673668116
6871000000.0 -0.0008781005162745714 0.0008297488675452769
6872000000.0 -0.00035535168717615306 0.0010964706307277083
6873000000.0 0.0002527582983020693 0.0008633515681140125
6874000000.0 0.0005683146300725639 0.0008002871181815863
6875000000.0 0.0009221573709510267 0.00038498317007906735
6876000000.0 0.0010689492337405682 -0.00016224941646214575
6877000000.0 0.0009657968184910715 -0.0006248449790291488
6878000000.0 0.0007882599602453411 -0.000965247571002692
6879000000.0 -0.00024105857301037759 -0.0016804432962089777
6880000000.0 -0.0011437505017966032 -0.00033807929139584303
6881000000.0 -0.0005519656115211546 0.000741459836717695
6882000000.0 0.00025021759211085737 0.0002692513517104089
6883000000.0 0.00014353734150063246 9.791918273549527e-05
6884000000.0 1.880897252704017e-05 -8.58783969306387e-05
6885000000.0 -0.0002264814538648352 -0.00013183627743273973
6886000000.0 -0.0004508487181738019 7.467614341294393e-05
6887000000.0 -0.0004112454189453274 0.0004980748053640127
6888000000.0 4.735236871056259e-05 0.0006869135540910065
6889000000.0 0.0006702453247271478 0.0006387285538949072
6890000000.0 0.0009475612314417958 0.0002513608487788588
6891000000.0 0.0012496598064899445 -0.00017425493570044637
6892000000.0 0.0008157427655532956 -0.0009514340199530125
6893000000.0 0.00030067135230638087 -0.0012984015047550201
6894000000.0 -0.0005732838180847466 -0.001298092189244926
6895000000.0 -0.0012489833170548081 -0.0006585007649846375
6896000000.0 -0.001395074650645256 9.205056267092004e-05
6897000000.0 -0.0010047596879303455 0.0008556147804483771
6898000000.0 -0.00036534128594212234 0.0013471205020323396
6899000000.0 0.00045981688890606165 0.0012936166021972895
6900000000.0 0.0011276245350018144 0.0007843731436878443
6901000000.0 0.001128840958699584 9.469535871176049e-05
6902000000.0 0.0008592101512476802 -0.0005482595879584551
6903000000.0 0.0004151013563387096 -0.0009044069447554648
6904000000.0 -9.963435877580196e-05 -0.0008701621554791927
6905000000.0 -0.000296069891192019 -0.0007129419827833772
6906000000.0 -0.0005565867759287357 -0.000538334425073117
6907000000.0 -0.0006817991961725056 -0.0004263726295903325
6908000000.0 -0.0008937308448366821 -1.7280804968322627e-05
6909000000.0 -0.00073678616899997 0.0004270531644579023
6910000000.0 -0.0006434584502130747 0.0008372684242203832
6911000000.0 -0.00019688805332407355 0.0010169841116294265
6912000000.0 0.00042014895007014275 0.0010919187916442752
6913000000.0 0.0010536290938034654 0.0008656343561597168
6914000000.0 0.0014001184608787298 0.00036202563205733895
6915000000.0 0.0015117356088012457 -0.0003834794042631984
6916000000.0 0.0009609726257622242 -0.0011395248584449291
6917000000.0 0.0004211354535073042 -0.0016381534514948726
6918000000.0 -0.0004387562512420118 -0.0016438220627605915
6919000000.0 -0.0011550674680620432 -0.0013699785340577364
6920000000.0 -0.0016909044934436679 -0.0011103034485131502
6921000000.0 -0.00349421426653862 0.0016262258868664503
6922000000.0 -7.093084423104301e-05 0.003458059160038829
6923000000.0 0.0006862845621071756 0.002841376233845949
6924000000.0 0.001912296749651432 0.001988867996260524
6925000000.0 0.001544464728794992 0.0011217924766242504
6926000000.0 0.0021713972091674805 -0.00022370646183844656
6927000000.0 0.002114559058099985 -0.0017551295459270477
6928000000.0 0.001018280629068613 -0.0025596795603632927
6929000000.0 -0.0005575405666604638 -0.0029395613819360733
6930000000.0 -0.0017879930092021823 -0.0023578580003231764
6931000000.0 -0.002914094366133213 -0.0008287786040455103
6932000000.0 -0.003114366205409169 0.0008128519402816892
6933000000.0 -0.002183310454711318 0.0024291907902806997
6934000000.0 -0.0013773548416793346 0.0032308059744536877
6935000000.0 0.0015796845545992255 0.003230889793485403
6936000000.0 0.002831029938533902 0.001879795454442501
6937000000.0 0.0032205909956246614 0.00015101510507520288
6938000000.0 0.002856101840734482 -0.0014310915721580386
6939000000.0 0.0016713278600946069 -0.002643485786393285
6940000000.0 0.00018129468662664294 -0.0030705134849995375
6941000000.0 -0.0016576007474213839 -0.0028176840860396624
6942000000.0 -0.0026991728227585554 -0.001878441427834332
6943000000.0 -0.0030072045046836138 -0.00043976851156912744
6944000000.0 -0.0030145810451358557 0.0011788709089159966
6945000000.0 -0.0020690197125077248 0.002754185814410448
6946000000.0 -0.0006770017789676785 0.0034782635048031807
6947000000.0 0.0013596867211163044 0.0034243972040712833
6948000000.0 0.0026876654010266066 0.0023506395518779755
6949000000.0 0.0037732436321675777 0.0009804480941966176
6950000000.0 0.0037861226592212915 -0.0010602843249216676
6951000000.0 0.0032294010743498802 -0.00288791093043983
6952000000.0 0.0016196545911952853 -0.004289434757083654
6953000000.0 -0.0006783586577512324 -0.005107642151415348
6954000000.0 -0.003301476128399372 -0.004847147036343813
6955000000.0 -0.005655908491462469 -0.003116397187113762
6956000000.0 -0.007851030677556992 -0.00025248120073229074
6957000000.0 -0.00936218537390232 0.00445482088252902
6958000000.0 -0.009483907371759415 0.01336267776787281
6959000000.0 0.007455070968717337 0.0329747349023819
6960000000.0 0.04019331559538841 0.011404271237552166
6961000000.0 0.03046102449297905 -0.02644260600209236
6962000000.0 -0.025250012055039406 -0.021870354190468788
6963000000.0 -0.014416845515370369 -0.00032314451527781785
6964000000.0 -0.008575750514864922 0.004614189732819796
6965000000.0 -0.0038957777433097363 0.006204199977219105
6966000000.0 -0.00041633815271779895 0.005950083024799824
6967000000.0 0.0021762284450232983 0.004349340684711933
6968000000.0 0.0034336005337536335 0.002445975551381707
6969000000.0 0.0035887635312974453 0.0002390143199590966
6970000000.0 0.003007804974913597 -0.0013223957503214478
6971000000.0 0.0016563760582357645 -0.0024126204662024975
6972000000.0 0.00035432056756690145 -0.002527523785829544
6973000000.0 -0.0007626876467838883 -0.002369062742218375
6974000000.0 -0.0018084238981828094 -0.0012674402678385377
6975000000.0 -0.001989534590393305 -6.537615990964696e-05
6976000000.0 -0.0016672222409397364 0.0007546067936345935
6977000000.0 -0.0006850666832178831 0.001319981412962079
6978000000.0 -8.553107181796804e-05 0.0014000944793224335
6979000000.0 0.0005709886318072677 0.0009999786270782351
6980000000.0 0.0011014898773282766 0.00044160825200378895
6981000000.0 0.000790183141361922 -0.0002076368109555915
6982000000.0 0.0005242893821559846 -0.000741524389013648
6983000000.0 0.0001574571942910552 -0.0007048564148135483
6984000000.0 -0.0004641701525542885 -0.0006519817980006337
6985000000.0 -0.0008567929617129266 -0.00014221054152585566
6986000000.0 -0.0007615719805471599 0.0004965845728293061
6987000000.0 -0.00038072786992415786 0.0008954701479524374
6988000000.0 0.00034697153023444116 0.0011923317797482014
6989000000.0 0.000911453680600971 0.0006045243353582919
6990000000.0 0.0014759862096980214 8.323730435222387e-05
6991000000.0 0.0014115908415988088 -0.0009518203441984951
6992000000.0 0.0006062571192160249 -0.0015072536189109087
6993000000.0 -0.0003734472848009318 -0.0016160877421498299
6994000000.0 -0.0011710097314789891 -0.0010491876164451241
6995000000.0 -0.0017438874347135425 -0.00028283751453273
6996000000.0 -0.0016708445036783814 0.0006787441088818014
6997000000.0 -0.0010710230562835932 0.0016678725369274616
6998000000.0 0.0002231269609183073 0.0019847231451421976
6999000000.0 0.001429266994819045 0.0017950390465557575
7000000000.0 0.00209930632263422 0.0006050496594980359
