! Created with skrf 1.10.0 (http://scikit-rf.org).
# Hz S RI R 50.0 
!freq ReS11 ImS11
!
6000000000.0 0.00024858966935425997 0.0012293988838791847
6001000000.0 0.0009648615377955139 0.000877300335559994
6002000000.0 0.0012587462551891804 0.00023322697961702943
6003000000.0 0.00113870354834944 -0.00042510684579610825
6004000000.0 0.0009679110953584313 -0.0008932808414101601
6005000000.0 0.00042399149970151484 -0.001034205430187285
6006000000.0 -0.0001779490412445739 -0.001248669344931841
6007000000.0 -0.0008384441607631743 -0.0010133667383342981
6008000000.0 -0.0012454332318156958 -0.00061360455583781
6009000000.0 -0.0011914725182577968 2.0874083929811604e-05
6010000000.0 -0.0008994410745799541 0.0006064060144126415
6011000000.0 -0.0006957517471164465 0.0009429054334759712
6012000000.0 -4.65677585452795e-05 0.0010633665369823575
6013000000.0 0.0005159032298251987 0.000995130161754787
6014000000.0 0.0010762927122414112 0.0007096775807440281
6015000000.0 0.0010213678469881415 0.00016492004215251654
6016000000.0 0.0010324183385819197 -0.00048350077122449875
6017000000.0 0.0007957590860314667 -0.0007494444726034999
6018000000.0 0.0003132587007712573 -0.0009673767490312457
6019000000.0 -0.00023386739485431463 -0.0010382571490481496
6020000000.0 -0.0007858235621824861 -0.0006619977066293359
6021000000.0 -0.0009452442754991353 -0.0003802069113589823
6022000000.0 -0.0011529602343216538 0.00011510053445817903
6023000000.0 -0.0007872990681789815 0.0004972129827365279
6024000000.0 -0.0003503253392409533 0.0009213759913109243
6025000000.0 3.906930942321196e-05 0.0011183752212673426
6026000000.0 0.00036175153218209743 0.0008048606105148792
6027000000.0 0.0007716178079135716 0.0005886689177714288
6028000000.0 0.0009467534255236387 8.484298450639471e-05
6029000000.0 0.0008076269295997918 -0.0002556088147684932
6030000000.0 0.0006236225017346442 -0.0007702967850491405
6031000000.0 0.000264695001533255 -0.0009465658804401755
6032000000.0 -0.00016107276314869523 -0.0009574902360327542
6033000000.0 -0.0006237013731151819 -0.0006785360164940357
6034000000.0 -0.0007665665470995009 -0.00040997221367433667
6035000000.0 -0.0009192945435643196 0.0001438357721781358
6036000000.0 -0.0006966401706449687 0.0005675737629644573
6037000000.0 -0.0004328371142037213 0.0008060766267590225
6038000000.0 -1.3643380952998996e-05 0.0009925997583195567
6039000000.0 0.0003020463336724788 0.0008624953334219754
6040000000.0 0.0006930785020813346 0.0005462566041387618
6041000000.0 0.0009329293388873339 0.00027070072246715426
6042000000.0 0.000874246412422508 -0.00032721515162847936
6043000000.0 0.0006829772610217333 -0.000674908165819943
6044000000.0 0.00017687852960079908 -0.0008160701836459339
6045000000.0 -8.97147401701659e-05 -0.0008730375557206571
6046000000.0 -0.0004030319396406412 -0.0005758483894169331
6047000000.0 -0.000731890497263521 -0.0003297378425486386
6048000000.0 -0.0008317328174598515 7.20881434972398e-05
6049000000.0 -0.0007930099382065237 0.00040200140210799873
6050000000.0 -0.0005833346513099968 0.0007234126678667963
6051000000.0 -0.00015354820061475039 0.0009965015342459083
6052000000.0 0.0003453708195593208 0.0008335476741194725
6053000000.0 0.0005482790875248611 0.000653454742860049
6054000000.0 0.0008244900964200497 0.00016408099327236414
6055000000.0 0.0009493212564848363 -0.00028094780282117426
6056000000.0 0.0007076754118315876 -0.0005980244604870677
6057000000.0 0.00037889977102167904 -0.0008954338263720274
6058000000.0 -8.420579979429021e-05 -0.0009030784713104367
6059000000.0 -0.00048400519881397486 -0.0007876141462475061
6060000000.0 -0.0009341798722743988 -0.000486114586237818
6061000000.0 -0.0008139840792864561 -2.3426877305610105e-05
6062000000.0 -0.0009105016943067312 0.00040670172893442214
6063000000.0 -0.0005554980598390102 0.0007873076829127967
6064000000.0 -0.00015438672562595457 0.0010209414176642895
6065000000.0 0.0002579457650426775 0.0008101518615148962
6066000000.0 0.0006388230831362307 0.0006481827585957944
6067000000.0 0.0009374227374792099 0.00014332242426462471
6068000000.0 0.0007972809835337102 -0.00015056213305797428
6069000000.0 0.0008734555449336767 -0.0005564423045143485
6070000000.0 0.0003340874391142279 -0.0008798466296866536
6071000000.0 7.660263509023935e-05 -0.0008493714849464595
6072000000.0 -0.0003983043134212494 -0.0009103037300519645
6073000000.0 -0.0008370080031454563 -0.00045635804417543113
6074000000.0 -0.0010243924334645271 -3.476935307844542e-05
6075000000.0 -0.0009021296864375472 0.0004349896917119622
6076000000.0 -0.0005809986614622176 0.0007227532914839685
6077000000.0 -4.3943455239059404e-05 0.0009524644119665027
6078000000.0 0.00033912304206751287 0.001097130007110536
6079000000.0 0.000778188812546432 0.0006618600455112755
6080000000.0 0.0009631626307964325 0.00019024450739379972
6081000000.0 0.00098917365539819 -0.0004287567862775177
6082000000.0 0.0008348915725946426 -0.000660825171507895
6083000000.0 0.0004249736375641078 -0.0008897262741811574
6084000000.0 -0.00014008466678205878 -0.0008329214761033654
6085000000.0 -0.0005128146149218082 -0.0007661003619432449
6086000000.0 -0.001064772019162774 -0.00047733113751746714
6087000000.0 -0.001199035905301571 0.00031972676515579224
6088000000.0 -0.0006806891178712249 0.0005018836818635464
6089000000.0 -0.0003804626176133752 0.0006750940228812397
6090000000.0 -0.0001489809510530904 0.0010293001541867852
6091000000.0 0.0006217951304279268 0.0008726192754693329
6092000000.0 0.0008873011101968586 0.0006774311186745763
6093000000.0 0.001065681455656886 0.00022177034406922758
6094000000.0 0.0008682715706527233 -0.00019076156604569405
6095000000.0 0.0006583889480680227 -0.0007414307910948992
6096000000.0 0.0001887223043013364 -0.0010778044816106558
6097000000.0 -0.00019470308325253427 -0.0007452291902154684
6098000000.0 -0.0006060318555682898 -0.0009118255693465471
6099000000.0 -0.0009071423555724323 -0.0004157597431913018
6100000000.0 -0.0010653185890987515 0.00023056697682477534
6101000000.0 -0.0006793638458475471 0.0006113324197940528
6102000000.0 -0.000563753885217011 0.0008976470562629402
6103000000.0 0.00011333938164170831 0.000923826708458364
6104000000.0 0.0004325092304497957 0.001044127275235951
6105000000.0 0.0007483188528567553 0.0005812073359265924
6106000000.0 0.0010315005201846361 0.0003642896772362292
6107000000.0 0.001018255134113133 -0.0002395257615717128
6108000000.0 0.0005329930572770536 -0.0007496792823076248
6109000000.0 0.0003091132384724915 -0.0009831389179453254
6110000000.0 -9.824833796301391e-06 -0.0008766165701672435
6111000000.0 -0.000675810209941119 -0.0006489328225143254
6112000000.0 -0.0009142147609964013 -0.0006127865635789931
6113000000.0 -0.0010294135427102447 0.00013625665451399982
6114000000.0 -0.000883207656443119 0.0003581683849915862
6115000000.0 -0.0005951772909611464 0.000896626734174788
6116000000.0 -6.776228110538796e-05 0.0011657150462269783
6117000000.0 0.0004048030241392553 0.0009837895631790161
6118000000.0 0.0009267515852116048 0.0008150042849592865
6119000000.0 0.0010440133046358824 0.00018743917462415993
6120000000.0 0.0009605835075490177 -0.00043608344276435673
6121000000.0 0.0008208982180804014 -0.0009385793237015605
6122000000.0 0.00020245344785507768 -0.001107852440327406
6123000000.0 -0.00025556233595125377 -0.0011373627930879593
6124000000.0 -0.0009130602702498436 -0.0006505180499516428
6125000000.0 -0.0012027351185679436 -0.0004718299023807049
6126000000.0 -0.0010457970201969147 0.00033318152418360114
6127000000.0 -0.0009677482303231955 0.0005307461833581328
6128000000.0 -0.0005477513768710196 0.0008616005652584136
6129000000.0 -0.00012410565977916121 0.0013996126363053918
6130000000.0 0.0006061192252673209 0.0009605024824850261
6131000000.0 0.0010300014400854707 0.0006728068110533059
6132000000.0 0.0012798694660887122 -8.156880358001217e-05
6133000000.0 0.0009005317697301507 -0.0005069835460744798
6134000000.0 0.000736077141482383 -0.0009637768380343914
6135000000.0 -3.1102670163818402e-06 -0.0010273673105984926
6136000000.0 -0.000414570007706061 -0.0011170252691954374
6137000000.0 -0.0008811469888314605 -0.0007443539798259735
6138000000.0 -0.0013258327962830663 -0.0001812965056160465
6139000000.0 -0.0009373682551085949 0.0003772745549213141
6140000000.0 -0.0008377557387575507 0.0009015737450681627
6141000000.0 -0.0002714714501053095 0.0009919757721945643
6142000000.0 0.00021630142873618752 0.0012984805507585406
6143000000.0 0.0009055004920810461 0.0009149214019998908
6144000000.0 0.001055129338055849 0.000496546970680356
6145000000.0 0.001088615390472114 -0.00017543372814543545
6146000000.0 0.0009279341320507228 -0.0005051016341894865
6147000000.0 0.0004618419043254107 -0.0007987658609636128
6148000000.0 -0.0001625989389140159 -0.001056357636116445
6149000000.0 -0.00048582241288386285 -0.001048082485795021
6150000000.0 -0.0008514023502357304 -0.0005680760950781405
6151000000.0 -0.0009851763024926186 -0.00025285393348895013
6152000000.0 -0.0009093399858102202 0.00026558790705166757
6153000000.0 -0.0006160114426165819 0.0006766192382201552
6154000000.0 -0.00022241797705646604 0.001043891068547964
6155000000.0 0.00028340364224277437 0.0008706639637239277
6156000000.0 0.00060742546338588 0.0008142904262058437
6157000000.0 0.0009702541283331811 0.0003631567524280399
6158000000.0 0.001115471706725657 -0.00022056307352613658
6159000000.0 0.0009375905501656234 -0.0005569363129325211
6160000000.0 0.000567144132219255 -0.00086132378783077
6161000000.0 -0.00014038084191270173 -0.0009866789914667606
6162000000.0 -0.000572070071939379 -0.0009194703889079392
6163000000.0 -0.0008243568590842187 -0.0005830207956023514
6164000000.0 -0.0009852609364315867 -0.00011763775546569377
6165000000.0 -0.0008250334649346769 0.0003374686639290303
6166000000.0 -0.0006684691761620343 0.00074870785465464
6167000000.0 -0.00021595331782009453 0.0010004256619140506
6168000000.0 0.00038116241921670735 0.0009308420121669769
6169000000.0 0.0007733724778518081 0.0008454009657725692
6170000000.0 0.0008149272762238979 0.00039663532515987754
6171000000.0 0.0008174491231329739 -8.145743049681187e-05
6172000000.0 0.0007477949257008731 -0.0005387626588344574
6173000000.0 0.0005124507588334382 -0.0008123633451759815
6174000000.0 -0.0001337421708740294 -0.0010753241367638111
6175000000.0 -0.0004902862710878253 -0.0009026664192788303
6176000000.0 -0.000692228670231998 -0.0005490393959917128
6177000000.0 -0.0009459428838454187 -1.3203032722231e-05
6178000000.0 -0.0008596647530794144 0.0004354229022283107
6179000000.0 -0.0008534892112948 0.0006587189272977412
6180000000.0 -0.0002325343812117353 0.0008540570270270109
6181000000.0 8.468888700008392e-05 0.0010408366797491908
6182000000.0 0.0006328216404654086 0.0009629772393964231
6183000000.0 0.0009428440243937075 0.0003487552748993039
6184000000.0 0.0011218779254704714 -7.410985563183203e-05
6185000000.0 0.0009248133865185082 -0.0006738108349964023
6186000000.0 0.00050985103007406 -0.001097573316656053
6187000000.0 -0.00011589781934162602 -0.0010715659009292722
6188000000.0 -0.0004655184457078576 -0.0009797370294108987
6189000000.0 -0.0009274021140299737 -0.0006416655378416181
6190000000.0 -0.0009698339272290468 -7.042197103146464e-05
6191000000.0 -0.0011344716185703874 0.00030131908715702593
6192000000.0 -0.0008418229408562183 0.0008197014103643596
6193000000.0 -0.000337744306307286 0.0010781752644106746
6194000000.0 0.0002511494094505906 0.0011315320152789354
6195000000.0 0.0008444408886134624 0.0008922813576646149
6196000000.0 0.001059019472450018 0.0003683992545120418
6197000000.0 0.0011934495996683836 -0.00024574599228799343
6198000000.0 0.0009387439349666238 -0.0008039591484703124
6199000000.0 0.00047735421685501933 -0.00110594742000103
6200000000.0 -0.00019039976177737117 -0.0013093685265630484
6201000000.0 -0.0006281457608565688 -0.0009644147357903421
6202000000.0 -0.0010261720744892955 -0.0007180462125688791
6203000000.0 -0.0011751549318432808 5.250482354313135e-05
6204000000.0 -0.0010696094250306487 0.0004955068579874933
6205000000.0 -0.0007341187447309494 0.0010296388063579798
6206000000.0 -7.628820458194241e-05 0.0013104663230478764
6207000000.0 0.0004594385391101241 0.000984574668109417
6208000000.0 0.0008532043430022895 0.0008784334640949965
6209000000.0 0.0011139153502881527 0.0002609013463370502
6210000000.0 0.0011214580154046416 -0.00031903182389214635
6211000000.0 0.0007564559346064925 -0.000895384349860251
6212000000.0 0.0005644550547003746 -0.0010943595552816987
6213000000.0 0.00011527660535648465 -0.0011242878390476108
6214000000.0 -0.0006015020771883428 -0.0008329572738148272
6215000000.0 -0.0010580284288153052 -0.0005053497152402997
6216000000.0 -0.0011640426237136126 0.0001957495405804366
6217000000.0 -0.0008672563126310706 0.0007417768356390297
6218000000.0 -0.0005038988892920315 0.001083793700672686
6219000000.0 -5.341846645023907e-06 0.0011201509041711688
6220000000.0 0.000570029194932431 0.0012000987771898508
6221000000.0 0.0009554140851832926 0.0005979634588584304
6222000000.0 0.0009259271319024265 7.373621338047087e-05
6223000000.0 0.001027274178341031 -0.00027099050930701196
6224000000.0 0.0006938138394616544 -0.0007029261323623359
6225000000.0 0.00023319774481933564 -0.0012340993853285909
6226000000.0 -0.00019394682021811604 -0.0012221570359542966
6227000000.0 -0.0007822173647582531 -0.0009255846380256116
6228000000.0 -0.001007355167530477 -0.0004006299132015556
6229000000.0 -0.000988268293440342 0.00026327770319767296
6230000000.0 -0.0008704873616807163 0.0008008913137018681
6231000000.0 -0.00043478241423144937 0.0010223520221188664
6232000000.0 -2.3484228222514503e-05 0.0012514094123616815
6233000000.0 0.0006686031119897962 0.0009968127124011517
6234000000.0 0.0008231237879954278 0.0006850585341453552
6235000000.0 0.0009446567273698747 0.00011501288827275857
6236000000.0 0.0010863638017326593 -0.00029076766804791987
6237000000.0 0.0006022516754455864 -0.0008868532022461295
6238000000.0 0.00020320608746260405 -0.0010755525436252356
6239000000.0 -0.0003609843843150884 -0.0010114727774634957
6240000000.0 -0.0007772801909595728 -0.0006297784275375307
6241000000.0 -0.0010248649632558227 -0.00028242377447895706
6242000000.0 -0.0009383043507114053 6.0038346418878064e-05
6243000000.0 -0.0008291886188089848 0.0006227832636795938
6244000000.0 -0.0003185287641827017 0.0010650925105437636
6245000000.0 0.00010959235078189522 0.000986238126643002
6246000000.0 0.00048698895261622965 0.0008208905928768218
6247000000.0 0.00088120112195611 0.00048372623859904706
6248000000.0 0.0009709702571853995 0.0001452815777156502
6249000000.0 0.0008271150290966034 -0.0004488095873966813
6250000000.0 0.0006470775115303695 -0.0007305715698748827
6251000000.0 0.00015373973292298615 -0.0010759740835055709
6252000000.0 -0.00024001262499950826 -0.001006457838229835
6253000000.0 -0.0005847896682098508 -0.0005725969676859677
6254000000.0 -0.0008968719048425555 -0.00040844164323061705
6255000000.0 -0.00103939906693995 0.00027116938144899905
6256000000.0 -0.0006928385118953884 0.0005975987878628075
6257000000.0 -0.0003928429796360433 0.000826626957859844
6258000000.0 0.00017004957771860063 0.0010066324612125754
6259000000.0 0.0005389202269725502 0.0006920932210050523
6260000000.0 0.0008280440233647823 0.00043067411752417684
6261000000.0 0.00083598040509969 -8.427564171142876e-05
6262000000.0 0.000716282578650862 -0.0003171044809278101
6263000000.0 0.0005787669797427952 -0.0006831564824096859
6264000000.0 0.00030185197829268873 -0.0009406695025973022
6265000000.0 -0.0002206466451752931 -0.0008858253131620586
6266000000.0 -0.00041119757224805653 -0.0004597360675688833
6267000000.0 -0.0008229201193898916 -0.0003107846132479608
6268000000.0 -0.0008839583024382591 5.681476613972336e-05
6269000000.0 -0.0007246374734677374 0.0005347043625079095
6270000000.0 -0.00030370763852261007 0.0007557438802905381
6271000000.0 -3.737428778549656e-05 0.0008202968165278435
6272000000.0 0.000309818860841915 0.0006806725286878645
6273000000.0 0.0006072153919376433 0.0005071082268841565
6274000000.0 0.000824636546894908 0.0002113113587256521
6275000000.0 0.0009793405188247561 -0.00020166675676591694
6276000000.0 0.0006181650096550584 -0.0005567481275647879
6277000000.0 0.000306461937725544 -0.0008717919699847698
6278000000.0 -0.0002477409434504807 -0.0008615439292043447
6279000000.0 -0.0004084288375452161 -0.0006727832369506359
6280000000.0 -0.0007931356085464358 -0.0003006954211741686
6281000000.0 -0.0007804619963280857 6.872690573800355e-05
6282000000.0 -0.0007646563462913036 0.0004911329597234726
6283000000.0 -0.0005457767401821911 0.0007873534923419356
6284000000.0 -0.00023081374820321798 0.000870431016664952
6285000000.0 0.0001473698066547513 0.0009077857830561697
6286000000.0 0.0005687636439688504 0.0006840206333436072
6287000000.0 0.0009183618822135031 0.0001993433979805559
6288000000.0 0.0009786708978936076 -0.00011567854380700737
6289000000.0 0.0008839088259264827 -0.0005303954822011292
6290000000.0 0.00037447569775395095 -0.0008531823987141252
6291000000.0 7.836139411665499e-05 -0.0009390019113197923
6292000000.0 -0.00047697933041490614 -0.0008743364596739411
6293000000.0 -0.0007589950109831989 -0.000685173028614372
6294000000.0 -0.0010354826226830482 -0.0001542316167615354
6295000000.0 -0.0008554671658203006 0.00042059406405314803
6296000000.0 -0.0007792338728904724 0.0008594718528911471
6297000000.0 -0.0003089991514571011 0.0011168885976076126
6298000000.0 0.0003044702752958983 0.0010408530943095684
6299000000.0 0.0007424122886732221 0.0008874245104379952
6300000000.0 0.0009764014394022524 0.0004874056903645396
6301000000.0 0.0010868367971852422 -0.00018534190894570202
6302000000.0 0.0009352587512694299 -0.0006196050089783967
6303000000.0 0.0006084954948164523 -0.0011227646609768271
6304000000.0 -3.1216852221405134e-05 -0.0011600597063079476
6305000000.0 -0.00069781782804057 -0.001083460869267583
6306000000.0 -0.001049915561452508 -0.0007827304652892053
6307000000.0 -0.0013448032550513744 -0.00014694790297653526
6308000000.0 -0.0012141314800828695 0.0006443794118240476
6309000000.0 -0.000728774641174823 0.001235130475834012
6310000000.0 -0.00021352745534386486 0.0013624255079776049
6311000000.0 0.0005789746064692736 0.0012267654528841376
6312000000.0 0.001099162152968347 0.0009067858918569982
6313000000.0 0.0014290971448644996 0.00023355628945864737
6314000000.0 0.0012759306700900197 -0.0004316415870562196
6315000000.0 0.0009419135749340057 -0.0009987098164856434
6316000000.0 0.0002820056688506156 -0.0014120513806119561
6317000000.0 -0.00036639138124883175 -0.0013393849367275834
6318000000.0 -0.000977979740127921 -0.0009288229048252106
6319000000.0 -0.001317971502430737 -0.00041964929550886154
6320000000.0 -0.0013576732017099857 0.0002953424700535834
6321000000.0 -0.0010376847349107265 0.000882783264387399
6322000000.0 -0.0003925951023120433 0.001329405582509935
6323000000.0 0.0002133711241185665 0.0013293859083205462
6324000000.0 0.0008078755927272141 0.0010001573245972395
6325000000.0 0.001237120945006609 0.0006253692554309964
6326000000.0 0.0013356900308281183 -9.574108116794378e-05
6327000000.0 0.0011409736471250653 -0.000626506982371211
6328000000.0 0.00066057697404176 -0.001086043776012957
6329000000.0 -7.386459037661552e-05 -0.001303532044403255
6330000000.0 -0.0005236361175775528 -0.0010029459372162819
6331000000.0 -0.0010584687115624547 -0.0006958007579669356
6332000000.0 -0.0012281722156330943 -0.00018893933156505227
6333000000.0 -0.0011565955355763435 0.0005100183188915253
6334000000.0 -0.0007458381005562842 0.0008210640517063439
6335000000.0 -0.0002313148434041068 0.0012010318459942937
6336000000.0 0.00030595410498790443 0.0012351649347692728
6337000000.0 0.0008054964710026979 0.0009125512442551553
6338000000.0 0.0010560551891103387 0.0004130867018830031
6339000000.0 0.0011299975449219346 -0.00014861096860840917
6340000000.0 0.000943323306273669 -0.0006872508092783391
6341000000.0 0.0003985272778663784 -0.000988647574558854
6342000000.0 -0.00014874587941449136 -0.0011440508533269167
6343000000.0 -0.0005398326320573688 -0.0009588194079697132
6344000000.0 -0.0008588384953327477 -0.0005892867338843644
6345000000.0 -0.0010750519577413797 1.6583870092290454e-05
6346000000.0 -0.0009476994164288044 0.0005238140583969653
6347000000.0 -0.000601918320171535 0.0008517873357050121
6348000000.0 -0.00021480172290466726 0.0011159670539200306
6349000000.0 0.0002834147016983479 0.0010822579497471452
6350000000.0 0.0007749083451926708 0.000705975922755897
6351000000.0 0.0009836136596277356 0.0004182747798040509
6352000000.0 0.0009244714165106416 -0.0001345154596492648
6353000000.0 0.0008751341956667602 -0.0006002674927003682
6354000000.0 0.0005228921654634178 -0.0009189319098368287
6355000000.0 -4.843436909141019e-05 -0.001005470403470099
6356000000.0 -0.0005475221551023424 -0.0009420500136911869
6357000000.0 -0.0008220843155868351 -0.000624793698079884
6358000000.0 -0.0010192155605182052 -5.34595747012645e-05
6359000000.0 -0.0009488777723163366 0.00029432139126583934
6360000000.0 -0.0005946076125837862 0.0007297013653442264
6361000000.0 -0.00020724040223285556 0.0009828939801082015
6362000000.0 0.0001843274076236412 0.0010426301741972566
6363000000.0 0.0007658315007574856 0.0007617017836309969
6364000000.0 0.0009417379042133689 0.0002988733758684248
6365000000.0 0.000944462139159441 -0.00018034939421340823
6366000000.0 0.0007690162165090442 -0.0005528501933440566
6367000000.0 0.00043466011993587017 -0.000841778761241585
6368000000.0 -5.367327685235068e-05 -0.0009803525172173977
6369000000.0 -0.00039550798828713596 -0.0008472687914036214
6370000000.0 -0.0009120270260609686 -0.000603867752943188
6371000000.0 -0.0010087380651384592 -7.115438347682357e-05
6372000000.0 -0.0008638512226752937 0.00045532340300269425
6373000000.0 -0.0006257591303437948 0.0008675750577822328
6374000000.0 -0.0001643644063733518 0.001034606364555657
6375000000.0 0.0003007796185556799 0.0008838744251988828
6376000000.0 0.0007216529920697212 0.0007668515900149941
6377000000.0 0.0009530676761642098 0.00025527094840072095
6378000000.0 0.0009850759524852037 -0.00017633243987802416
6379000000.0 0.0007930468418635428 -0.0005810228758491576
6380000000.0 0.0004901652573607862 -0.0009411466890014708
6381000000.0 -7.831471157260239e-05 -0.0009834343800321221
6382000000.0 -0.0004633090575225651 -0.000874617020599544
6383000000.0 -0.0009120674803853035 -0.00047739301226101816
6384000000.0 -0.0009060557931661606 -2.3676893761148676e-05
6385000000.0 -0.0010081243235617876 0.0003182482032570988
6386000000.0 -0.0005980201531201601 0.0007833238923922181
6387000000.0 -0.0003487768117338419 0.0009735253406688571
6388000000.0 0.0002575712278485298 0.0010210158070549369
6389000000.0 0.0006749152671545744 0.0008217766880989075
6390000000.0 0.0009571067639626563 0.00029497529612854123
6391000000.0 0.0009901479352265596 -7.749335054541007e-05
6392000000.0 0.0008039544918574393 -0.0005931777413934469
6393000000.0 0.0004980487865395844 -0.0008184518082998693
6394000000.0 -2.6366305974079296e-05 -0.0009567925008013844
6395000000.0 -0.0005185820627957582 -0.000913001480512321
6396000000.0 -0.0008539161062799394 -0.0005703215720131993
6397000000.0 -0.001001981901936233 -0.00011348995758453384
6398000000.0 -0.0009859057608991861 0.0004550218000076711
6399000000.0 -0.0007057028124108911 0.0007818659069016576
6400000000.0 -0.0002111773210344836 0.0009992693085223436
6401000000.0 0.00026367997634224594 0.0011038968805223703
6402000000.0 0.0007639951072633266 0.000804934068582952
6403000000.0 0.0011084240395575762 0.00026564247673377395
6404000000.0 0.001058397814631462 -0.0001348813675576821
6405000000.0 0.0009081478347070515 -0.0006424232269637287
6406000000.0 0.00041260456782765687 -0.0010855126893147826
6407000000.0 -0.0001221873244503513 -0.0011238084407523274
6408000000.0 -0.0005752677097916603 -0.0009168680990114808
6409000000.0 -0.00100184406619519 -0.0005167835624888539
6410000000.0 -0.0012129350798204541 6.232848681975156e-05
6411000000.0 -0.0010121677769348025 0.0005365952383726835
6412000000.0 -0.0006261916714720428 0.0009576348820701241
6413000000.0 -5.415989289758727e-05 0.0011886093998327851
6414000000.0 0.0005580487777478993 0.0010571820894256234
6415000000.0 0.0010468686232343316 0.0006148777320049703
6416000000.0 0.0012639050837606192 6.37686753179878e-05
6417000000.0 0.0010598385706543922 -0.00046531984116882086
6418000000.0 0.0006965798093006015 -0.0010486525716260076
6419000000.0 0.0001546759594930336 -0.001221205573529005
6420000000.0 -0.0004547444696072489 -0.001074441708624363
6421000000.0 -0.0009156886953860521 -0.0007422915077768266
6422000000.0 -0.0010536408517509699 -0.0002151231310563162
6423000000.0 -0.001031676190905273 0.0004113441682420671
6424000000.0 -0.0008345195674337447 0.0008183016325347126
6425000000.0 -0.0002653245464898646 0.0010962564265355468
6426000000.0 0.00025744602316990495 0.000982215628027916
6427000000.0 0.0007159631350077689 0.0008504762663505971
6428000000.0 0.0010430041002109647 0.00030784227419644594
6429000000.0 0.0011124889133498073 -0.00020696573483292013
6430000000.0 0.0007700733258388937 -0.0005945874727331102
6431000000.0 0.00039061662391759455 -0.0009731781901791692
6432000000.0 -7.912820365163498e-06 -0.0009844856103882194
6433000000.0 -0.0004999021766707301 -0.0007398170419037342
6434000000.0 -0.0008196120616048574 -0.0004598004452418536
6435000000.0 -0.0009308113367296755 -8.040514512686059e-05
6436000000.0 -0.0008642225875519216 0.00036350873415358365
6437000000.0 -0.0005674312706105411 0.000741508905775845
6438000000.0 -9.689163562143221e-05 0.000864863395690918
6439000000.0 0.00023795590095687658 0.0007862030761316419
6440000000.0 0.0006653973250649869 0.0006048445357009768
6441000000.0 0.0007531733135692775 0.000252325291512534
6442000000.0 0.0007633122149854898 -0.0001894629531307146
6443000000.0 0.0006506867939606309 -0.0005094700609333813
6444000000.0 0.0002974006056319922 -0.0007303120801225305
6445000000.0 -5.4534280934603885e-05 -0.0008274204446934164
6446000000.0 -0.000404182355850935 -0.0006690488080494106
6447000000.0 -0.000675138202495873 -0.00039124584873206913
6448000000.0 -0.0006789373583160341 -2.003351073653903e-05
6449000000.0 -0.0007358108414337039 0.00036963768070563674
6450000000.0 -0.0005125451716594398 0.0006081569008529186
6451000000.0 -0.0001697664411040023 0.0006919563165865839
6452000000.0 0.00021927263878751546 0.0007155101047828794
6453000000.0 0.0005278332391753793 0.0005731975543312728
6454000000.0 0.0007492216536775231 0.00017634301912039518
6455000000.0 0.0007745924522168934 -0.00010561079398030415
6456000000.0 0.0006421757861971855 -0.00037325723678804934
6457000000.0 0.0003909500956069678 -0.0006463276804424822
6458000000.0 3.466546695563011e-05 -0.000745518715120852
6459000000.0 -0.000312940392177552 -0.0006082416512072086
6460000000.0 -0.0005161823937669396 -0.0004192079941276461
6461000000.0 -0.0006203111843205988 -0.00013672263594344258
6462000000.0 -0.0006847087061032653 0.0001673645165283233
6463000000.0 -0.0005010544555261731 0.0005569219938479364
6464000000.0 -0.0002381738886469975 0.0005864412523806095
6465000000.0 0.0001521458470961079 0.0006758971721865237
6466000000.0 0.0004382765619084239 0.0005742335924878716
6467000000.0 0.0005976957618258893 0.00027366538415662944
6468000000.0 0.0007079074857756495 -4.480826828512363e-05
6469000000.0 0.0006137101445347071 -0.0003717505605891347
6470000000.0 0.00037252524634823203 -0.0005430003511719406
6471000000.0 9.257134479412343e-06 -0.0006822357536293566
6472000000.0 -0.0001983734400710091 -0.000666809210088104
6473000000.0 -0.0006329022580757737 -0.00048421623068861663
6474000000.0 -0.0006939661107026041 -0.00017024148837663233
6475000000.0 -0.0007687371107749641 0.00020707843941636384
6476000000.0 -0.0005523677100427449 0.0005681196926161647
6477000000.0 -0.00017717810987960547 0.0006329753086902201
6478000000.0 8.926485315896571e-05 0.0008289437973871827
6479000000.0 0.0005210925592109561 0.0006119530880823731
6480000000.0 0.0007064790697768331 0.0003443818131927401
6481000000.0 0.0007576997741125524 -4.753003304358572e-05
6482000000.0 0.0006909315125085413 -0.00032356588053517044
6483000000.0 0.0003518792218528688 -0.000622982217464596
6484000000.0 0.0001050607897923328 -0.0007720121648162603
6485000000.0 -0.00033052588696591556 -0.0006113944109529257
6486000000.0 -0.0005955449887551367 -0.00047894136514514685
6487000000.0 -0.000739840033929795 -0.00017052206385415047
6488000000.0 -0.0006940141320228577 0.00019490097474772483
6489000000.0 -0.0005394154577516019 0.00047282010200433433
6490000000.0 -0.00019118518684990704 0.0007441109628416598
6491000000.0 0.00011441356764407828 0.0006761795375496149
6492000000.0 0.0004726415791083127 0.0005693249986506999
6493000000.0 0.0007226207526400685 0.00029252521926537156
6494000000.0 0.0006911248783580959 -5.916636382607976e-06
6495000000.0 0.000600519881118089 -0.00039822375401854515
6496000000.0 0.00034249629243277013 -0.0005584539612755179
6497000000.0 1.5311813967855414e-06 -0.000755650398787111
6498000000.0 -0.0003543769125826657 -0.0006445453618653119
6499000000.0 -0.0005681701586581767 -0.0005238724988885224
6500000000.0 -0.0007058947812765837 -0.00014565540186595172
6501000000.0 -0.00077529635746032 0.00024183551431633532
6502000000.0 -0.0006399223930202425 0.0005482191336341202
6503000000.0 -0.00023714890994597226 0.0007851053378544748
6504000000.0 8.792032895144075e-05 0.0008696909062564373
6505000000.0 0.0005040790420025587 0.000653882569167763
6506000000.0 0.0007558859069831669 0.0003966524382121861
6507000000.0 0.0009020359721034765 -4.4756765419151634e-05
6508000000.0 0.0006720276433043182 -0.00045582521124742925
6509000000.0 0.00033424634602852166 -0.0007871183333918452
6510000000.0 4.315874684834853e-05 -0.0009367255261167884
6511000000.0 -0.000266161747276783 -0.0007359819719567895
6512000000.0 -0.0006967925000935793 -0.000597434991504997
6513000000.0 -0.0008861309615895152 -0.00020251204841770232
6514000000.0 -0.0008951047784648836 0.0002610676165204495
6515000000.0 -0.0007051611319184303 0.0006692834431305528
6516000000.0 -0.00019252281344961375 0.0008958279504440725
6517000000.0 8.195355621865019e-05 0.0010049236007034779
6518000000.0 0.0005369971040636301 0.0008297045133076608
6519000000.0 0.0009417829569429159 0.00036321592051535845
6520000000.0 0.0010494779562577605 -5.0058795750373974e-05
6521000000.0 0.0008604684262536466 -0.000561570399440825
6522000000.0 0.000505284289829433 -0.0010043891379609704
6523000000.0 1.1651055729089421e-06 -0.001142344786785543
6524000000.0 -0.0005931167979724705 -0.0009140312322415411
6525000000.0 -0.0010416784789413214 -0.000533251790329814
6526000000.0 -0.0011724063660949469 -4.269717101124115e-05
6527000000.0 -0.0010830610990524292 0.000588151509873569
6528000000.0 -0.0005565132014453411 0.0010504088131710887
6529000000.0 -0.00011724623618647456 0.0012660145293921232
6530000000.0 0.0005266189109534025 0.00112986471503973
6531000000.0 0.0010278148110955954 0.0007559065707027912
6532000000.0 0.0012370418990030885 -1.282492007703695e-06
6533000000.0 0.0010836481815204024 -0.0004908120026811957
6534000000.0 0.0007294047391042113 -0.0010626350995153189
6535000000.0 0.0001386502553941682 -0.0011998721165582538
6536000000.0 -0.0004905883688479662 -0.001077817752957344
6537000000.0 -0.0010242763673886657 -0.0007421628688462079
6538000000.0 -0.0011674119159579277 -0.0001605044089956209
6539000000.0 -0.001074177329428494 0.0004941553925164044
6540000000.0 -0.0007196643855422735 0.0009463602327741683
6541000000.0 -0.00016287055041175336 0.0011300670448690653
6542000000.0 0.00033640966285020113 0.0009632094879634678
6543000000.0 0.0008284385548904538 0.0006992864073254168
6544000000.0 0.0010321029694750905 0.00019000632164534181
6545000000.0 0.0010262931464239955 -0.00026558717945590615
6546000000.0 0.0006588873802684247 -0.00070360885001719
6547000000.0 0.00026278302539139986 -0.0009161395137198269
6548000000.0 -0.00021890692005399615 -0.0009223443339578807
6549000000.0 -0.0005848364089615643 -0.0008081021369434893
6550000000.0 -0.0008526777382940054 -0.00040573463775217533
6551000000.0 -0.0008903478155843914 0.0001493644085712731
6552000000.0 -0.000771357212215662 0.0004235091619193554
6553000000.0 -0.0004837411397602409 0.0007435388397425413
6554000000.0 -4.484430610318668e-05 0.0007957850466482341
6555000000.0 0.0002869252348318696 0.000833293073810637
6556000000.0 0.0006158691248856485 0.0006051220116205513
6557000000.0 0.0008081180276349187 0.0001454117737011984
6558000000.0 0.0008725418010726571 -0.00022405468916986138
6559000000.0 0.0007591666071675718 -0.0005656222347170115
6560000000.0 0.0003544762439560145 -0.0007876523304730654
6561000000.0 -0.00019047925889026374 -0.0009068207000382245
6562000000.0 -0.0005407896242104471 -0.0006736383074894547
6563000000.0 -0.0007530130678787827 -0.0003992132260464132
6564000000.0 -0.0009499895968474448 1.2738302757497877e-05
6565000000.0 -0.000732366053853184 0.00042140402365475893
6566000000.0 -0.00041482853703200817 0.0007307875202968717
6567000000.0 -9.9248303740751e-05 0.0008370560244657099
6568000000.0 0.00037282894481904805 0.000770589045714587
6569000000.0 0.000634766009170562 0.0005784743698313832
6570000000.0 0.0009016484837047756 0.00011879676458192989
6571000000.0 0.0008240357856266201 -0.0002457317023072392
6572000000.0 0.0006946916691958904 -0.0005731575074605644
6573000000.0 0.0002472484775353223 -0.0008529404294677079
6574000000.0 -7.602613914059475e-05 -0.0008048173622228205
6575000000.0 -0.0006173588335514069 -0.0007253244402818382
6576000000.0 -0.0007856482407078147 -0.0003965444047935307
6577000000.0 -0.0009037929121404886 -6.304224370978773e-05
6578000000.0 -0.0008489717729389668 0.00042292336001992226
6579000000.0 -0.0005271921399980783 0.0007988118450157344
6580000000.0 -3.1992058211471885e-05 0.0009108467493206263
6581000000.0 0.0003653900639619678 0.0008510692859999835
6582000000.0 0.0007369470549747348 0.0006001016590744257
6583000000.0 0.0009414381347596645 0.0001292977249249816
6584000000.0 0.0009460358996875584 -0.0003929323866032064
6585000000.0 0.0006099579622969031 -0.0007161038811318576
6586000000.0 0.00020480004604905844 -0.0009037158451974392
6587000000.0 -0.0002378226345172152 -0.0009571434347890317
6588000000.0 -0.0006658363854512572 -0.0006610297714360058
6589000000.0 -0.0009637995972298086 -0.0002497380774002522
6590000000.0 -0.0009846779284998775 0.00013459008187055588
6591000000.0 -0.0007223947322927415 0.0006661424995400012
6592000000.0 -0.00039355087210424244 0.000905846303794533
6593000000.0 0.00012463820166885853 0.000989781110547483
6594000000.0 0.0005791062721982598 0.0007586419815197587
6595000000.0 0.0008454305934719741 0.0004741065495181829
6596000000.0 0.0009465817711316049 -6.664869579253718e-05
6597000000.0 0.0007471206481568515 -0.000465906981844455
6598000000.0 0.0004159359377808869 -0.0008633839315734804
6599000000.0 7.833026756998152e-05 -0.0009279219666495919
6600000000.0 -0.00040575655293650925 -0.0007923134253360331
6601000000.0 -0.0006929491646587849 -0.0005875806091353297
6602000000.0 -0.0010254618246108294 -8.662031177664176e-05
6603000000.0 -0.0007864993531256914 0.0003476717392913997
6604000000.0 -0.00046055795974098146 0.0006889381911605597
6605000000.0 -0.0002721951750572771 0.0007924169767647982
6606000000.0 0.0001285273174289614 0.0009487953502684832
6607000000.0 0.0005632318207062781 0.0006883102469146252
6608000000.0 0.0008822978707030416 0.0002187066274927929
6609000000.0 0.0008537460817024112 -7.121340604498982e-05
6610000000.0 0.0006915016565471888 -0.0004035209713038057
6611000000.0 0.0003517289296723902 -0.0007207805174402893
6612000000.0 -7.553456089226529e-05 -0.0008698277524672449
6613000000.0 -0.0005069154431112111 -0.0007459746557287872
6614000000.0 -0.0007459502667188644 -0.0004483019874896854
6615000000.0 -0.0008809057180769742 -0.00013408626546151936
6616000000.0 -0.0008026970317587256 0.000364917068509385
6617000000.0 -0.0006048321374692023 0.000639162608422339
6618000000.0 -0.00023845446412451565 0.0008924305438995361
6619000000.0 0.00025384596665389836 0.0008678546291776001
6620000000.0 0.0006362652056850493 0.0006571263074874878
6621000000.0 0.0007735121180303395 0.00035017219488509
6622000000.0 0.0009244186221621931 -0.00019459227041807026
6623000000.0 0.0008292203419841826 -0.0006031597149558365
6624000000.0 0.0003898752329405397 -0.0009205033420585096
6625000000.0 3.921216375601944e-06 -0.0009115024004131556
6626000000.0 -0.0004864218062721193 -0.00081139977555722
6627000000.0 -0.0007349180523306131 -0.0005053741042502224
6628000000.0 -0.0009591162670403719 1.711430559225846e-05
6629000000.0 -0.000866240996401757 0.0003151394776068628
6630000000.0 -0.0005712767597287893 0.0007799280574545264
6631000000.0 -0.00018336038920097053 0.0008934935904107988
6632000000.0 0.00025369672221131623 0.0009439181885682046
6633000000.0 0.0008045731228776276 0.0006000101566314697
6634000000.0 0.0009811752242967486 0.0002162687451345846
6635000000.0 0.0008490329491905868 -0.00027974258409813046
6636000000.0 0.0006840168498456478 -0.0007147124269977212
6637000000.0 0.00026805198285728693 -0.0009557662415318191
6638000000.0 -0.00021399647812359035 -0.00091985595645383
6639000000.0 -0.0006191886495798826 -0.0008358581108041108
6640000000.0 -0.0009557880694046617 -0.0003220055950805545
6641000000.0 -0.0009514457196928561 0.00015559146413579583
6642000000.0 -0.0008445208659395576 0.0006857570842839777
6643000000.0 -0.0003710077435243875 0.0008726237574592233
6644000000.0 0.0001357344735879451 0.0008784745004959404
6645000000.0 0.0005968801560811698 0.0008175764232873917
6646000000.0 0.0008632712997496128 0.0005200422601774335
6647000000.0 0.0009292751201428473 -3.188203845638782e-05
6648000000.0 0.0008034874917939305 -0.0004707124026026577
6649000000.0 0.000559035805054009 -0.0007129513542167842
6650000000.0 2.0400408175191842e-05 -0.0007894309819675982
6651000000.0 -0.0003531537367962301 -0.000647066393867135
6652000000.0 -0.00072826276300475 -0.0005396811757236719
6653000000.0 -0.0007875925512053072 -0.00016874624998308718
6654000000.0 -0.0008511800551787019 0.00020015639893244952
6655000000.0 -0.0005308834952302277 0.0005971829523332417
6656000000.0 -0.0002631594834383577 0.0008480121032334864
6657000000.0 7.623203418916091e-05 0.0008167904452420771
6658000000.0 0.00038016994949430227 0.0006512776599265635
6659000000.0 0.0007310775108635426 0.00033708882983773947
6660000000.0 0.0007507905829697847 2.2499139959109016e-05
6661000000.0 0.0006141357589513063 -0.0004172637709416449
6662000000.0 0.0003321949625387788 -0.0005375052569434047
6663000000.0 1.852113928180188e-05 -0.0006544385105371475
6664000000.0 -0.0002187499194405973 -0.0006374840158969164
6665000000.0 -0.000552519632037729 -0.0004561502137221396
6666000000.0 -0.0007271032663993537 -6.304899579845369e-05
6667000000.0 -0.0006953225820325315 0.00018473320233169943
6668000000.0 -0.0005855207564309239 0.00045244189095683396
6669000000.0 -0.00031750494963489473 0.000728445767890662
6670000000.0 0.00013094489986542612 0.0007373539847321808
6671000000.0 0.0004751273663714528 0.0005455799400806427
6672000000.0 0.0006133827846497297 0.0004417500749696046
6673000000.0 0.0006416910327970982 4.37140442954842e-05
6674000000.0 0.0006297860527411103 -0.0002963719598483294
6675000000.0 0.0003470146330073476 -0.000603265012614429
6676000000.0 0.00013023118663113564 -0.0008242416079156101
6677000000.0 -0.00025061776977963746 -0.0006703368853777647
6678000000.0 -0.0004974904004484415 -0.0005193353863433003
6679000000.0 -0.0006791510386392474 -0.00030157066066749394
6680000000.0 -0.0006329313619062304 9.487344505032524e-05
6681000000.0 -0.0006472651148214936 0.0003580194606911391
6682000000.0 -0.0003572738787624985 0.0006139352917671204
6683000000.0 7.79537731432356e-05 0.0008535097003914416
6684000000.0 0.0005056090303696692 0.0007348618819378316
6685000000.0 0.0007284144521690905 0.0004598697414621711
6686000000.0 0.0008510707993991673 4.618540333467536e-05
6687000000.0 0.0006815455271862447 -0.00032070354791358113
6688000000.0 0.000549878051970154 -0.0006041060551069677
6689000000.0 0.0001468133123125881 -0.0008087762398645282
6690000000.0 -0.00027887424221262336 -0.0008834945037961006
6691000000.0 -0.0006691382732242346 -0.0006017606938257813
6692000000.0 -0.0009673596941865981 -0.0003223795210942626
6693000000.0 -0.0008776579634286463 9.726414282340556e-05
6694000000.0 -0.0007181848050095141 0.000620221602730453
6695000000.0 -0.00031904023489914834 0.0009193453588522971
6696000000.0 0.0001839267206378281 0.0010400608880445361
6697000000.0 0.0006216677720658481 0.0007877358584664762
6698000000.0 0.0010396224679425359 0.0005453914636746049
6699000000.0 0.0011096691014245152 -6.825046875746921e-05
6700000000.0 0.0010343036847189069 -0.0005663792253471911
6701000000.0 0.00064262276282534 -0.0009279551450163126
6702000000.0 -4.265161987859756e-05 -0.0010863413335755467
6703000000.0 -0.0006137839518487453 -0.0008190156077034771
6704000000.0 -0.0010560252703726292 -0.00047159858513623476
6705000000.0 -0.0010652464115992188 -0.00010817599832080305
6706000000.0 -0.0009794681100174785 0.00045177951687946916
6707000000.0 -0.0005518218385986984 0.0008942194981500506
6708000000.0 7.332427230721805e-06 0.0010883051436394453
6709000000.0 0.0005300752818584442 0.0009293572511523962
6710000000.0 0.0009307427098974586 0.0006644832901656628
6711000000.0 0.0009968647500500083 0.00015674227324780077
6712000000.0 0.0009989466052502394 -0.0004203090211376548
6713000000.0 0.0007422331837005913 -0.0008517891983501613
6714000000.0 0.0001099247092497535 -0.0010011078556999564
6715000000.0 -0.00037140477797947824 -0.0011297392193228006
6716000000.0 -0.0006956831784918904 -0.0007055899477563798
6717000000.0 -0.001012489665299654 -0.00028399130678735673
6718000000.0 -0.0009635947644710541 0.0002865876303985715
6719000000.0 -0.0007705222233198583 0.000727107806596905
6720000000.0 -0.00031641407986171544 0.0009165614610537887
6721000000.0 0.0002328495611436665 0.0009878578130155802
6722000000.0 0.0006369641050696373 0.0008193499525077641
6723000000.0 0.0010036836611106992 0.00042092191870324314
6724000000.0 0.0010148546425625682 -0.0001338472793577239
6725000000.0 0.0009146329830400646 -0.0006749748135916889
6726000000.0 0.0004557852225843817 -0.0009985000360757113
6727000000.0 -0.00010938887862721458 -0.0010818104492500424
6728000000.0 -0.0005193215329200029 -0.0009636871982365847
6729000000.0 -0.0007598701631650329 -0.0005054536159150302
6730000000.0 -0.001132890465669334 -1.7349313566228375e-05
6731000000.0 -0.0009275259217247367 0.00048039149260148406
6732000000.0 -0.0006191756692714989 0.000774456886574626
6733000000.0 -7.599199307151139e-05 0.0010294868843629956
6734000000.0 0.0005121649010106921 0.000963923754170537
6735000000.0 0.0007021088968031108 0.0004908635746687651
6736000000.0 0.0010318596614524722 0.0002336708566872403
6737000000.0 0.0009315917850472033 -0.0002819634391926229
6738000000.0 0.0006410277565009892 -0.0007886814419180155
6739000000.0 0.00018500043370295316 -0.0009347964078187943
6740000000.0 -0.00040585602982901037 -0.000843130866996944
6741000000.0 -0.0007254027877934277 -0.0006148028187453747
6742000000.0 -0.0009443829185329378 -0.0001370150421280414
6743000000.0 -0.0009499269654043019 0.0002407153369858861
6744000000.0 -0.0007348599610850215 0.0006307189469225705
6745000000.0 -0.00012241443619132042 0.0008662164909765124
6746000000.0 0.000167346719535999 0.0009198585175909102
6747000000.0 0.0006246070261113346 0.0006076391437090933
6748000000.0 0.0007513633463531733 0.00014928718155715615
6749000000.0 0.0008501809206791222 -9.11355164134875e-05
6750000000.0 0.0005887733423151076 -0.0004983639228157699
6751000000.0 0.00047792523400858045 -0.0007789200753904879
6752000000.0 -0.00011921230907319114 -0.0008349486743099988
6753000000.0 -0.0003804166044574231 -0.000523907714523375
6754000000.0 -0.0006143058999441564 -0.00026639114366844296
6755000000.0 -0.0006292056059464812 -2.3007009076536633e-05
6756000000.0 -0.0005473814671859145 0.00040812615770846605
6757000000.0 -0.00043421497684903443 0.0005998234264552593
6758000000.0 -0.0001659277331782505 0.0006438691052608192
6759000000.0 0.00027338688960298896 0.0006622743094339967
6760000000.0 0.00047379324678331614 0.00022583649842999876
6761000000.0 0.0005953962681815028 0.0002197316352976486
6762000000.0 0.00044787602382712066 -0.00012629415141418576
6763000000.0 0.00036909119808115065 -0.00040233347681351006
6764000000.0 0.00024459685664623976 -0.000598546233959496
6765000000.0 5.537006654776633e-05 -0.0005541922873817384
6766000000.0 -0.00020432862220332026 -0.00036961204023100436
6767000000.0 -0.0004578836669679731 -0.00035452490556053817
6768000000.0 -0.0005483228014782071 -9.259217767976224e-05
6769000000.0 -0.0004342089523561299 0.0001204232539748773
6770000000.0 -0.0003468455688562244 0.0004050362331327051
6771000000.0 -0.00012577346933539957 0.000563267502002418
6772000000.0 0.00013156062050256878 0.0004757734131999314
6773000000.0 0.00038045941619202495 0.00047183013521134853
6774000000.0 0.0005727628595195711 0.0003430352662689984
6775000000.0 0.00046635320177301764 -7.949282007757574e-05
6776000000.0 0.0003505459171719849 -0.00020254387345630676
6777000000.0 0.00025089411064982414 -0.0004249608900863677
6778000000.0 3.626465331763029e-05 -0.0004790893290191889
6779000000.0 -0.0002982890873681754 -0.0005015766946598887
6780000000.0 -0.0003905043995473534 -0.00022018027084413916
6781000000.0 -0.0004426771483849734 -6.158351607155055e-05
6782000000.0 -0.0005154564278200269 0.00011237660510232672
6783000000.0 -0.0005057709058746696 0.00040370432543568313
6784000000.0 -0.0002877947990782559 0.00043073183041997254
6785000000.0 0.00014229188673198223 0.0005179084837436676
6786000000.0 0.00030079775024205446 0.00041649964987300336
6787000000.0 0.00046508165542036295 0.00033841663389466703
6788000000.0 0.0005393626634031534 -9.94320071185939e-05
6789000000.0 0.0004890013951808214 -0.00012544395576696843
6790000000.0 0.00032311174436472356 -0.000436991365859285
6791000000.0 0.00023692796821705997 -0.0005486583104357123
6792000000.0 -0.0001814946735976264 -0.0004584987764246762
6793000000.0 -0.00042463126010261476 -0.00025091736461035907
6794000000.0 -0.0006150831468403339 -0.0003038420691154897
6795000000.0 -0.0005605188780464232 0.00016792057431302965
6796000000.0 -0.00038787350058555603 0.00027493308880366385
6797000000.0 -0.0003582400386221707 0.0006319652893580496
6798000000.0 2.7960026272921823e-05 0.0007645784644410014
6799000000.0 0.00032910314621403813 0.0006798959220759571
6800000000.0 0.0006037449929863214 0.0003240235964767635
6801000000.0 0.0007282731821760535 6.548453529831022e-05
6802000000.0 0.0007048883708193898 -0.00029429580899886787
6803000000.0 0.0004012179560959339 -0.0006762853590771556
6804000000.0 0.00016607297584414482 -0.0007602308178320527
6805000000.0 -0.0003023587050847709 -0.0006750912289135158
6806000000.0 -0.0005600542644970119 -0.0004913588054478168
6807000000.0 -0.000660498219076544 0.00011023542901966721
6808000000.0 -0.0006795101799070835 0.00037823623279109597
6809000000.0 -0.0004305912589188665 0.000675327202770859
6810000000.0 -0.0001413020072504878 0.0008549533085897565
6811000000.0 0.00011745325173251331 0.0007870275876484811
6812000000.0 0.0005717424210160971 0.000570997130125761
6813000000.0 0.0006912589306011796 0.00010735391697380692
6814000000.0 0.0005961326532997191 -0.00013859217870049179
6815000000.0 0.0005829572910442948 -0.00046610189019702375
6816000000.0 0.00026619588606990874 -0.0007831639959476888
6817000000.0 -0.0002629912632983178 -0.0007798593142069876
6818000000.0 -0.0004906542599201202 -0.0006108953384682536
6819000000.0 -0.0005811099545098841 -0.00013212591875344515
6820000000.0 -0.0006887488416396081 -4.650652772397734e-05
6821000000.0 -0.0005856044008396566 0.0004931024159304798
6822000000.0 -0.0004147223080508411 0.0007803840562701225
6823000000.0 1.5424000594066456e-05 0.0007568479632027447
6824000000.0 0.00036659082979895175 0.0008079868857748806
6825000000.0 0.0008204347104765475 0.0005452394834719598
6826000000.0 0.0007005315274000168 8.648904440633487e-06
6827000000.0 0.000672415888402611 -0.0004336077836342156
6828000000.0 0.0004108802240807563 -0.0006035435362718999
6829000000.0 0.00015612154675181955 -0.0008971180650405586
6830000000.0 -0.00023216816771309823 -0.0006412176298908889
6831000000.0 -0.0004916656180284917 -0.0006421025027520955
6832000000.0 -0.0006003162707202137 -0.00011972131324000657
6833000000.0 -0.000754635373596102 3.436436236370355e-05
6834000000.0 -0.0007099878857843578 0.0004415846196934581
6835000000.0 -0.00029677676502615213 0.0006193967419676483
6836000000.0 2.4705408577574417e-05 0.0007499844068661332
6837000000.0 0.0003621166688390076 0.0006282650283537805
6838000000.0 0.0008520681876689196 0.00046982476487755775
6839000000.0 0.0008314918377436697 -0.00013426289660856128
6840000000.0 0.0007541580707766116 -0.0003069792874157429
6841000000.0 0.0004454030131455511 -0.0007051143329590559
6842000000.0 0.00019190984312444925 -0.0008283770293928683
6843000000.0 -0.0002330167480977252 -0.0007310650544241071
6844000000.0 -0.0006223233649507165 -0.000496246968396008
6845000000.0 -0.0008501658448949456 -4.701099896919914e-06
6846000000.0 -0.0007164719863794744 0.0003554376307874918
6847000000.0 -0.0005797402700409293 0.0006502310861833394
6848000000.0 8.817113848635927e-05 0.0008166112820617855
6849000000.0 0.0002928503090515733 0.0008633335819467902
6850000000.0 0.000842391571495682 0.0007134645129553974
6851000000.0 0.0009747807634994388 0.00020114642393309623
6852000000.0 0.001072629471309483 -0.00028859497979283333
6853000000.0 0.000701721990481019 -0.0007298668497242033
6854000000.0 0.00024829478934407234 -0.0011806485708802938
6855000000.0 -0.0004055500903632492 -0.0009112813277170062
6856000000.0 -0.0008020528475753963 -0.0006598677719011903
6857000000.0 -0.0010211826302111149 -0.00024014030350372195
6858000000.0 -0.0009832442738115788 0.0001985382696148008
6859000000.0 -0.0008110958151519299 0.0008169185020960867
6860000000.0 -0.0002694519062060863 0.0009002094739116728
6861000000.0 0.00014991458738222718 0.0009721434907987714
6862000000.0 0.0006165379309095442 0.0006110626272857189
6863000000.0 0.0009497268474660814 0.0003783624852076173
6864000000.0 0.001018632436171174 -0.00010962577653117478
6865000000.0 0.0008019363158382475 -0.0006003872258588672
6866000000.0 0.00034700747346505523 -0.0007593153859488666
6867000000.0 -0.0001718191197142005 -0.000751109910197556
6868000000.0 -0.0005430165911093354 -0.0007986449054442346
6869000000.0 -0.0008472917252220213 -0.0005154676036909223
6870000000.0 -0.0008950438932515681 7.115249172784388e-05
6871000000.0 -0.0006649091374129057 0.0004167650477029383
6872000000.0 -0.000403534242650494 0.0005695250583812594
6873000000.0 -7.060412463033572e-05 0.0007168707088567317
6874000000.0 0.00028627653955481946 0.000725454359780997
6875000000.0 0.0006606476381421089 0.0005019706441089511
6876000000.0 0.0007406350923702121 0.00015169678954407573
6877000000.0 0.0006622362416237593 -0.00021478047710843384
6878000000.0 0.0003789960755966604 -0.0005520491395145655
6879000000.0 0.00021443500008899719 -0.0007446226081810892
6880000000.0 -0.0002309628762304783 -0.0008035661303438246
6881000000.0 -0.0005304064834490418 -0.0004966213018633425
6882000000.0 -0.0007323948084376752 -0.0002127374755218625
6883000000.0 -0.0005998806445859373 8.613902173237875e-05
6884000000.0 -0.0005362139199860394 0.0005566669860854745
6885000000.0 -0.0002702231577131897 0.0006924924673512578
6886000000.0 -2.2264206563704647e-05 0.0006931553944014013
6887000000.0 0.000496159540489316 0.0008355430909432471
6888000000.0 0.0006205918616615236 0.0004743256722576916
6889000000.0 0.0006101273465901613 1.8951592210214585e-05
6890000000.0 0.0007047684048302472 -0.00020229101937729865
6891000000.0 0.000464375305455178 -0.00045641587348654866
6892000000.0 0.0003618422197178006 -0.0006605387898162007
6893000000.0 -0.0001611660118214786 -0.0006767230806872249
6894000000.0 -0.0006060169544070959 -0.0006190033745951951
6895000000.0 -0.0006691919988952577 -0.000306193542201072
6896000000.0 -0.0008281266782432795 0.00012596166925504804
6897000000.0 -0.0006104844505898654 0.0005025267018936574
6898000000.0 -0.0002827349817380309 0.0007530779694207013
6899000000.0 6.860311259515584e-05 0.0006322429399006069
6900000000.0 0.0004428965912666172 0.0006896026898175478
6901000000.0 0.000731391366571188 0.0004847529635298997
6902000000.0 0.000792676059063524 1.764273110893555e-05
6903000000.0 0.0007323948666453362 -0.00044737145071849227
6904000000.0 0.0004290561773814261 -0.0005557572585530579
6905000000.0 0.0002081248676404357 -0.0006840623100288212
6906000000.0 -0.00034001009771600366 -0.0006646005203947425
6907000000.0 -0.0006099480669945478 -0.0004985613049939275
6908000000.0 -0.0006502335891127586 -0.00013160353410057724
6909000000.0 -0.0007818067679181695 0.0002800156071316451
6910000000.0 -0.0005631477106362581 0.000510209531057626
6911000000.0 -0.00016983675595838577 0.0007283032755367458
6912000000.0 0.00023429383873008192 0.0007356921560131013
6913000000.0 0.000498363864608109 0.0004965338739566505
6914000000.0 0.0007481917273253202 0.0003292476467322558
6915000000.0 0.0007553776376880705 -0.00010473685688339174
6916000000.0 0.0006665983237326145 -0.00032448710408061743
6917000000.0 0.00027545777265913785 -0.0006164854858070612
6918000000.0 3.934704727726057e-05 -0.0007936506299301982
6919000000.0 -0.00030521454755216837 -0.0007313166279345751
6920000000.0 -0.0005924318684265018 -0.00026591031928546727
6921000000.0 -0.0005778941558673978 -3.137359453830868e-05
6922000000.0 -0.0006025349139235914 0.0004034239100292325
6923000000.0 -0.0004288170312065631 0.0004475640889722854
6924000000.0 -5.234842319623567e-05 0.0007719772984273732
6925000000.0 0.0003070648235734552 0.0006162592908367515
6926000000.0 0.000411055312724784 0.0005272174021229148
6927000000.0 0.0007130547310225666 0.0001378373708575964
6928000000.0 0.0007069632993079722 -0.00010390637908130884
6929000000.0 0.00040442481986247003 -0.00031435623532161117
6930000000.0 0.0001506156550021842 -0.0005718673928640783
6931000000.0 -6.514571578009054e-05 -0.0005954613443464041
6932000000.0 -0.0002835963969118893 -0.0005190713563933969
6933000000.0 -0.0005919678951613605 -0.00021320227824617177
6934000000.0 -0.0005525621236301959 -6.465482874773443e-05
6935000000.0 -0.0007199126412160695 0.00025653900229372084
6936000000.0 -0.0002971809299197048 0.0005173143581487238
6937000000.0 -0.00016905450320336968 0.0007416749140247703
6938000000.0 0.00018585054203867912 0.000609586073551327
6939000000.0 0.0004358893493190408 0.0004781263996846974
6940000000.0 0.000593826174736023 0.00021772859327029437
6941000000.0 0.0007315085968002677 -6.723835394950584e-05
6942000000.0 0.0005270381225273013 -0.00044746571802534163
6943000000.0 0.0003132956044282764 -0.0005783176166005433
6944000000.0 -3.729344462044537e-05 -0.0005893982597626746
6945000000.0 -0.0002190447848988697 -0.0005231316317804158
6946000000.0 -0.00045599654549732804 -0.0004280624270904809
6947000000.0 -0.0007267736364156008 -0.0002102007420035079
6948000000.0 -0.0006654395838268101 0.0001298530405620113
6949000000.0 -0.0005734348087571561 0.0004963786341249943
6950000000.0 -0.0003189406997989863 0.0006889065844006836
6951000000.0 0.00015001172141637653 0.0006145316292531788
6952000000.0 0.000495863554533571 0.000594352197367698
6953000000.0 0.0006748535088263452 0.0002531997743062675
6954000000.0 0.0008798238122835755 -9.035081166075543e-05
6955000000.0 0.0005806250846944749 -0.00044043565867468715
6956000000.0 0.00042362045496702194 -0.0007739533321000636
6957000000.0 6.382340507116169e-05 -0.0007602530531585217
6958000000.0 -0.0004052671429235488 -0.0008096986566670239
6959000000.0 -0.0007967767887748778 -0.00039372406899929047
6960000000.0 -0.0008935068617574871 -9.766469884198159e-05
6961000000.0 -0.0008670100360177457 0.0004493050801102072
6962000000.0 -0.0005248173838481307 0.0007048751576803625
6963000000.0 -0.00013107393169775605 0.0008513601496815681
6964000000.0 0.00037440424785017967 0.0009165556402876973
6965000000.0 0.0006868858472444117 0.0004878742911387235
6966000000.0 0.0009707642602734268 0.00011363806697772816
6967000000.0 0.0008083214052021503 -0.000395475683035329
6968000000.0 0.0007028913823887706 -0.000710605934727937
6969000000.0 0.00020417659834492952 -0.0008929393370635808
6970000000.0 -0.00021116055722814053 -0.0008698698366060853
6971000000.0 -0.000618417514488101 -0.0005472121993079782
6972000000.0 -0.0008471633191220462 -0.00031060504261404276
6973000000.0 -0.0008914450882002711 0.00027887019678018987
6974000000.0 -0.0007540264050476253 0.0005863880505785346
6975000000.0 -0.00040035948040895164 0.0007762268069200218
6976000000.0 0.00018475574324838817 0.0009436811087653041
6977000000.0 0.00046852792729623616 0.0007337669376283884
6978000000.0 0.0008183151949197054 0.00041660101851448417
6979000000.0 0.0009504822664894164 -0.00016959839558694512
6980000000.0 0.0007303711608983576 -0.0004083531675860286
6981000000.0 0.0005136628751643002 -0.0008248480735346675
6982000000.0 -9.658048838900868e-06 -0.0008825332042761147
6983000000.0 -0.00040805296157486737 -0.0006641838699579239
6984000000.0 -0.0007259384146891534 -0.0003897787828464061
6985000000.0 -0.0008235987625084817 -0.00011256898869760334
6986000000.0 -0.0007700443966314197 0.00022667163284495473
6987000000.0 -0.0004978803335689008 0.0005329619161784649
6988000000.0 -0.0002137142000719905 0.000750820676330477
6989000000.0 0.0002084407751681283 0.0007184546557255089
6990000000.0 0.0005896788206882775 0.000656547024846077
6991000000.0 0.0006677312194369733 0.0003326375735923648
6992000000.0 0.0008452454931102693 -2.757511356321629e-05
6993000000.0 0.0006328653544187546 -0.0005057384259998798
6994000000.0 0.000508653640281409 -0.0007330568041652441
6995000000.0 -0.0001081481677829288 -0.0008828697609715164
6996000000.0 -0.0005064417491666973 -0.0006097849691286683
6997000000.0 -0.000577434548176825 -0.00044392270501703024
6998000000.0 -0.0007923668017610908 -2.1528114302782342e-05
6999000000.0 -0.0008478094823658466 0.0003501710307318717
7000000000.0 -0.0005115516250953078 0.0007190858596004546
