! Created with skrf 1.10.0 (http://scikit-rf.org).
# Hz S RI R 50.0 
!freq ReS11 ImS11
!
4000000000.0 0.0025807786732912064 0.00036864978028461337
4004000000.0 -0.0006863604066893458 -0.002740411087870598
4008000000.0 -0.0022231193725019693 0.001803031424060464
4012000000.0 0.0023704441264271736 0.0013278075493872166
4016000000.0 0.0005590029177255929 -0.0027372725307941437
4020000000.0 -0.0025952477008104324 0.0007414590218104422
4024000000.0 0.0014949239557608962 0.0021693927701562643
4028000000.0 0.0010322723537683487 -0.0020413773600012064
4032000000.0 -0.0024648276157677174 -0.0005073922802694142
4036000000.0 0.0005870141321793199 0.0027401994448155165
4040000000.0 0.00238478509709239 -0.001181243802420795
4044000000.0 -0.0018377271480858326 -0.0016021068440750241
4048000000.0 -0.0008202440803870559 0.0025719853583723307
4052000000.0 0.002458614995703101 -0.00040416838601231575
4056000000.0 -0.0013541668886318803 -0.0023147929459810257
4060000000.0 -0.0017219653818756342 0.0021635068114846945
4064000000.0 0.002544558374211192 0.001079090521670878
4068000000.0 -0.0004028953844681382 -0.0025705406442284584
4072000000.0 -0.002305851085111499 0.0010939690982922912
4076000000.0 0.0023072916083037853 0.0015772068873047829
4080000000.0 0.0006789774633944035 -0.002469016471877694
4084000000.0 -0.002229861682280898 0.000266970630036667
4088000000.0 0.0012584287906065583 0.0022188895381987095
4092000000.0 0.0014433861942961812 -0.002062610350549221
4096000000.0 -0.0022624111734330654 -0.0007143111433833838
4100000000.0 0.000476131186587736 0.0021849684417247772
4104000000.0 0.0019493268337100744 -0.0011964492732658982
4108000000.0 -0.0015508485957980156 -0.0012059203581884503
4112000000.0 -0.0005629081861115992 0.0017658963333815336
4116000000.0 0.0016513140872120857 -6.849057172075845e-06
4120000000.0 -0.0005391046870499849 -0.0016019308241084218
4124000000.0 -0.0013576813507825136 0.000984315644018352
4128000000.0 0.0012929532676935196 0.0009291641763411462
4132000000.0 0.0005135363317094743 -0.0014684278285130858
4136000000.0 -0.0015221814392134547 -4.959034049534239e-05
4140000000.0 0.0005633527762256563 0.0014560933923348784
4144000000.0 0.001394873484969139 -0.0011102226562798023
4148000000.0 -0.0012469821376726031 -0.0010789250954985619
4152000000.0 -0.00045099196722730994 0.0017244204645976424
4156000000.0 0.001945650321431458 -0.0001787319779396057
4160000000.0 -0.0010035507148131728 -0.0017967905150726438
4164000000.0 -0.0014541830169036984 0.0013730594655498862
4168000000.0 0.002253045327961445 0.0007091889274306595
4172000000.0 9.871210750134196e-06 -0.0021746899001300335
4176000000.0 -0.0018644590163603425 0.0008592293597757816
4180000000.0 0.0012776856310665607 0.0017661788733676076
4184000000.0 0.0007304349564947188 -0.0018692046869546175
4188000000.0 -0.0020051186438649893 -0.0002498278918210417
4192000000.0 0.000723279663361609 0.0018552504479885101
4196000000.0 0.0018655563471838832 -0.0013121827505528927
4200000000.0 -0.0019529296550899744 -0.0013775923289358616
4204000000.0 -0.0006310635362751782 0.0019978289492428303
4208000000.0 0.0024169301614165306 -0.00024080082948785275
4212000000.0 -0.0010139250662177801 -0.002417740412056446
4216000000.0 -0.001924990676343441 0.00212297635152936
4220000000.0 0.0024594480637460947 0.0008711747359484434
4224000000.0 2.866085196728818e-05 -0.0023906922433525324
4228000000.0 -0.0030652915593236685 0.0011248260270804167
4232000000.0 0.002230447018519044 0.0018782179104164243
4236000000.0 0.001149196526966989 -0.003042183816432953
4240000000.0 -0.0032890145666897297 0.0001499668142059818
4244000000.0 0.0016291242791339755 0.0030851797200739384
4248000000.0 0.0020113151986151934 -0.002537237014621496
4252000000.0 -0.003003363963216543 -0.00057282141642645
4256000000.0 0.00022368428471963853 0.0030490185599774122
4260000000.0 0.0026549582835286856 -0.0013935962924733758
4264000000.0 -0.0023284945636987686 -0.0017844414105638862
4268000000.0 -0.0009940703166648746 0.0025761036667972803
4272000000.0 0.002905047731474042 6.345020665321499e-05
4276000000.0 -0.0010923767695203424 -0.002422998659312725
4280000000.0 -0.0017281504115089774 0.0020312878768891096
4284000000.0 0.0019802118185907602 0.0007713135564699769
4288000000.0 0.0003904546902049333 -0.002623999025672674
4292000000.0 -0.0019954161252826452 0.0005328223924152553
4296000000.0 0.0017600010614842176 0.0021447171457111835
4300000000.0 0.0013928435510024428 -0.002053574426099658
4304000000.0 -0.002600516192615032 -0.0004660271806642413
4308000000.0 0.0002536289975978434 0.002054734854027629
4312000000.0 0.0018715928308665752 -0.0010211500339210033
4316000000.0 -0.0017930403118953109 -0.001570273656398058
4320000000.0 -0.0010899219196289778 0.0021520128939300776
4324000000.0 0.002689855173230171 -0.00021116473362781107
4328000000.0 -0.0008870247402228415 -0.001994054764509201
4332000000.0 -0.0011619847500696778 0.0016849832609295845
4336000000.0 0.0018829915206879377 0.000649882189463824
4340000000.0 1.5224773960653692e-05 -0.0022829179652035236
4344000000.0 -0.0025780003052204847 0.00036323987296782434
4348000000.0 0.0011653833789750934 0.0017620864091441035
4352000000.0 0.0014003550168126822 -0.0021008446346968412
4356000000.0 -0.0017604930326342583 -0.0005540818092413247
4360000000.0 -8.065357542363927e-05 0.0020722472108900547
4364000000.0 0.0023710266686975956 -0.0006640207138843834
4368000000.0 -0.0016773029929026961 -0.0016052324790507555
4372000000.0 -0.001127458643168211 0.002187081379815936
4376000000.0 0.0019160181982442737 0.000636101933196187
4380000000.0 -0.0005734286387450993 -0.0021297221537679434
4384000000.0 -0.0016305921599268913 0.0013306657783687115
4388000000.0 0.001425485941581428 0.0016993236495181918
4392000000.0 0.000867749797180295 -0.0028008343651890755
4396000000.0 -0.0024607202503830194 0.00016121183580253273
4400000000.0 0.001160474494099617 0.00218020542524755
4404000000.0 0.0019497204339131713 -0.0021947489585727453
4408000000.0 -0.0022778569255024195 -0.0009852439397946
4412000000.0 0.000285404414171353 0.0025532133877277374
4416000000.0 0.002509258920326829 -0.0012086406350135803
4420000000.0 -0.001986525021493435 -0.001442908775061369
4424000000.0 -0.000243094124016352 0.002430371008813381
4428000000.0 0.002343130065128207 -0.0003613733861129731
4432000000.0 -0.001196851022541523 -0.0021561835892498493
4436000000.0 -0.0013921274803578854 0.001651595812290907
4440000000.0 0.0021058558486402035 0.0007555169286206365
4444000000.0 0.0001054598469636403 -0.001747263828292489
4448000000.0 -0.0019236805383116007 0.000756765017285943
4452000000.0 0.0013173191109672189 0.0013328052591532469
4456000000.0 0.0009501766180619597 -0.00204860744997859
4460000000.0 -0.0021915000397711992 -0.0005664752097800374
4464000000.0 0.0005993726663291454 0.0022102314978837967
4468000000.0 0.0020415165927261114 -0.0009738260414451361
4472000000.0 -0.0017921163234859705 -0.001526734558865428
4476000000.0 -0.000153318906086497 0.002188104670494795
4480000000.0 0.0020867562852799892 -0.0006777800153940916
4484000000.0 -0.0015905629843473434 -0.0017620620783418417
4488000000.0 -0.0009591675479896367 0.0020595486275851727
4492000000.0 0.0021139720920473337 -0.00018644258670974523
4496000000.0 -0.0005017752991989255 -0.001720956526696682
4500000000.0 -0.0012793403584510088 0.0010787142673507333
4504000000.0 0.0015380267286673188 0.00041200712439604104
4508000000.0 -0.00011446660209912807 -0.001410461263731122
4512000000.0 -0.0014910479076206684 0.0005178516148589551
4516000000.0 0.0010241037234663963 0.0014050742611289024
4520000000.0 0.000922015926335007 -0.0013146755518391728
4524000000.0 -0.001217357930727303 -0.000793863320723176
4528000000.0 0.00016086867253761739 0.0015375559451058507
4532000000.0 0.0010603067930787802 -0.0007050295826047659
4536000000.0 -0.0009509527590125799 -0.0011236886493861675
4540000000.0 -0.0005661689210683107 0.0009310285095125437
4544000000.0 0.001118470449000597 0.00010444886720506474
4548000000.0 8.620868902653456e-05 -0.001798969809897244
4552000000.0 -0.001095286221243441 0.0007383664487861097
4556000000.0 0.0013067364925518632 0.001052152831107378
4560000000.0 0.0005665218341164291 -0.0015807688469067216
4564000000.0 -0.0015310811577364802 -0.00015899911522865295
4568000000.0 0.001068013603799045 0.0018346505239605904
4572000000.0 0.0009803975699469447 -0.0010757303098216653
4576000000.0 -0.001626344514079392 -0.0009138556779362261
4580000000.0 0.00012958802108187228 0.0017713597044348717
4584000000.0 0.0015398464165627956 -0.0005663777701556683
4588000000.0 -0.0011516226222738624 -0.0014055840438231826
4592000000.0 -0.0008256182773038745 0.001277225324884057
4596000000.0 0.00193595455493778 0.0001489712594775483
4600000000.0 -0.0006737721851095557 -0.0017829990247264504
4604000000.0 -0.001265301601961255 0.0010689044138416648
4608000000.0 0.0018306783167645335 0.0010078322375193238
4612000000.0 0.00037235417403280735 -0.0020395638421177864
4616000000.0 -0.0019857867155224085 0.00044009985867887735
4620000000.0 0.001062261639162898 0.0014094449579715729
4624000000.0 0.0010180113604292274 -0.0018433422083035111
4628000000.0 -0.002349262358620763 -0.00038118186057545245
4632000000.0 0.0004045030218549073 0.002029280411079526
4636000000.0 0.002082205144688487 -0.0008733733557164669
4640000000.0 -0.0019339032005518675 -0.0012357659870758653
4644000000.0 -8.385982800973579e-05 0.002115352312102914
4648000000.0 0.00226796162314713 -0.0003628902486525476
4652000000.0 -0.0015986126381903887 -0.001700393739156425
4656000000.0 -0.0011662221513688564 0.0017765380907803774
4660000000.0 0.002597114769741893 0.0002589448413345963
4664000000.0 -0.0007659615948796272 -0.002123929327353835
4668000000.0 -0.001938013592734933 0.0015319341327995062
4672000000.0 0.0019426298094913363 0.0008968558395281434
4676000000.0 0.00037956854794174433 -0.002091403817757964
4680000000.0 -0.0019376131240278482 0.0004323995963204652
4684000000.0 0.0010207556188106537 0.0014848692808300257
4688000000.0 0.0013398346491158009 -0.0015418771654367447
4692000000.0 -0.002031299751251936 -0.0003723924746736884
4696000000.0 0.00039261384517885745 0.0017503781709820032
4700000000.0 0.0020001120865345 -0.0006420101271942258
4704000000.0 -0.0017221912275999784 -0.001040419447235763
4708000000.0 -0.0009930478408932686 0.002008518436923623
4712000000.0 0.0016345917247235775 0.00038407507236115634
4716000000.0 -0.0005138293490745127 -0.0016447068192064762
4720000000.0 -0.0015638978220522404 0.0009966142242774367
4724000000.0 0.0014032709877938032 0.0009215900208801031
4728000000.0 0.0003571633715182543 -0.0017671800451353192
4732000000.0 -0.001665556919761002 0.000582091452088207
4736000000.0 0.0010167539585381746 0.001531200367026031
4740000000.0 0.0010782734025269747 -0.0009907432831823826
4744000000.0 -0.0015545992646366358 -0.00018316955538466573
4748000000.0 6.309480522759259e-05 0.0017595089739188552
4752000000.0 0.001724934671074152 -0.000602762564085424
4756000000.0 -0.0011383101809769869 -0.0009308456210419536
4760000000.0 -0.0007298941491171718 0.0015305763809010386
4764000000.0 0.0018037401605397463 0.0003805686719715595
4768000000.0 -0.0004368840891402215 -0.001972333062440157
4772000000.0 -0.001546691171824932 0.0008721709018573165
4776000000.0 0.0010860988404601812 0.0012446907348930836
4780000000.0 0.0004579908854793757 -0.0020109107717871666
4784000000.0 -0.0018712884047999978 -0.0002880931715480983
4788000000.0 0.000794256164226681 0.0018659612396731973
4792000000.0 0.0014120133128017187 -0.0012763375416398048
4796000000.0 -0.0017566840397194028 -0.00075957813533023
4800000000.0 -0.00024320543161593378 0.00200903182849288
4804000000.0 0.0021773912012577057 -0.00045138763380236924
4808000000.0 -0.001245441846549511 -0.0017459618393331766
4812000000.0 -0.000890551193151623 0.0020511650945991278
4816000000.0 0.0021113906987011433 0.0003844667226076126
4820000000.0 -0.0005649242666549981 -0.0022321196738630533
4824000000.0 -0.0018755506025627255 0.0013638237724080682
4828000000.0 0.0021274155005812645 0.0012988023227080703
4832000000.0 0.0006527248187921941 -0.002187540289014578
4836000000.0 -0.0021802475675940514 0.0006427780026569963
4840000000.0 0.001267452840693295 0.0019489256665110588
4844000000.0 0.0013079325435683131 -0.0020596086978912354
4848000000.0 -0.002398706739768386 -0.0006133854039944708
4852000000.0 0.00036243197973817587 0.002106494503095746
4856000000.0 0.0022355327382683754 -0.0010932196164503694
4860000000.0 -0.0017307401867583394 -0.0015420326963067055
4864000000.0 -0.00037398526910692453 0.002471250481903553
4868000000.0 0.0020146265160292387 -0.00017404289974365383
4872000000.0 -0.001254321658052504 -0.0019360565347597003
4876000000.0 -0.0011479919776320457 0.0019225499127060175
4880000000.0 0.0021602092310786247 0.0005275572184473276
4884000000.0 -0.0005770163843408227 -0.0019642733968794346
4888000000.0 -0.0014207125641405582 0.0012821988202631474
4892000000.0 0.0015470029320567846 0.000768711615819484
4896000000.0 0.0001633376959944144 -0.0017063969280570745
4900000000.0 -0.0016931429272517562 0.0003083233896177262
4904000000.0 0.0007307963678613305 0.0013832157710567117
4908000000.0 0.0009705828269943595 -0.0011597602861002088
4912000000.0 -0.0009980382164940238 -0.0004261055146344006
4916000000.0 -0.00020750217663589865 0.001244287472218275
4920000000.0 0.0013408747036010027 -0.00018467062909621745
4924000000.0 -0.0006053860415704548 -0.0009566544322296977
4928000000.0 -0.00083132617874071 0.000969165179412812
4932000000.0 0.0010535512119531631 0.0005363382515497506
4936000000.0 0.00015367995365522802 -0.0011299324687570333
4940000000.0 -0.0012036279076710343 0.00048532270011492074
4944000000.0 0.0006977254524827003 0.0012378596002236009
4948000000.0 0.0007637411472387612 -0.0011056435760110617
4952000000.0 -0.0013702926225960255 -0.0003279782831668854
4956000000.0 4.01671277359128e-05 0.001445248955860734
4960000000.0 0.001373258768580854 -0.0005196313140913844
4964000000.0 -0.0010878746397793293 -0.0010046252282336354
4968000000.0 -0.0005128413904458284 0.0014253261033445597
4972000000.0 0.0016252280911430717 9.220615902449936e-05
4976000000.0 -0.0006077544530853629 -0.001386322663165629
4980000000.0 -0.0011053240159526467 0.0010705762542784214
4984000000.0 0.0013845991343259811 0.0008733696304261684
4988000000.0 1.627505298529286e-05 -0.0016264348523691297
4992000000.0 -0.001501494669355452 0.00034143152879551053
4996000000.0 0.0011427971767261624 0.0012259830255061388
5000000000.0 0.0007370164385065436 -0.001463532098568976
5004000000.0 -0.0015555628342553973 -0.0002950158668681979
5008000000.0 0.0005183472530916333 0.0016606012359261513
5012000000.0 0.0013599732192233205 -0.0008922490524128079
5016000000.0 -0.0015131226973608136 -0.001279215095564723
5020000000.0 -0.00026313483249396086 0.001983462832868099
5024000000.0 0.0017306663794443011 -0.0003683177928905934
5028000000.0 -0.0010833757696673274 -0.001544618746265769
5032000000.0 -0.0013220201944932342 0.0015687353443354368
5036000000.0 0.0019949059933423996 2.7645857699098997e-05
5040000000.0 -0.0008520277333445847 -0.0023750674445182085
5044000000.0 -0.0018653026781976223 0.0012021948350593448
5048000000.0 0.0017838773783296347 0.0009061684249900281
5052000000.0 -8.608156349509954e-05 -0.0022127297706902027
5056000000.0 -0.0018377704545855522 0.0009946004720404744
5060000000.0 0.0014588609337806702 0.0014104227302595973
5064000000.0 0.0006663652020506561 -0.001984067726880312
5068000000.0 -0.0011459109373390675 0.00011174290557391942
5072000000.0 0.0007715967367403209 0.0014783524675294757
5076000000.0 0.001134863356128335 -0.0010863649658858776
5080000000.0 -0.0012523307232186198 -0.0009353966452181339
5084000000.0 0.00026034621987491846 0.001334681292064488
5088000000.0 0.0014504664577543736 -0.0001365102216368541
5092000000.0 -0.000937441538553685 -0.001268057618290186
5096000000.0 -0.000474233936984092 0.001027612597681582
5100000000.0 0.0015502948081120849 0.00022702709247823805
5104000000.0 0.00025771063519641757 -0.0012725419364869595
5108000000.0 -0.0010204521240666509 0.0007218470564112067
5112000000.0 0.0010971613228321075 0.001065469696186483
5116000000.0 0.0009504802874289453 -0.0014770649140700698
5120000000.0 -0.0016478650504723191 -3.2232394005404785e-05
5124000000.0 0.0007316417759284377 0.0012666182592511177
5128000000.0 0.001371486927382648 -0.0010854238644242287
5132000000.0 -0.0010644494323059916 -0.0009287525317631662
5136000000.0 -0.0003213565214537084 0.0016269405605271459
5140000000.0 0.0011825804831460118 -0.000585838861297816
5144000000.0 -0.000476846907986328 -0.0014236338902264833
5148000000.0 -0.0009280012454837561 0.0010696243261918426
5152000000.0 0.0014516270020976663 0.0006548870005644858
5156000000.0 -0.0004462652141228318 -0.0012504627229645848
5160000000.0 -0.0010369699448347092 0.0005200221203267574
5164000000.0 0.001089568599127233 0.0009926024358719587
5168000000.0 0.000330394075717777 -0.0010910513810813427
5172000000.0 -0.0015436748508363962 -0.00010254984226776287
5176000000.0 0.00010554716573096812 0.0014257467119023204
5180000000.0 0.0011031889589503407 -0.0006798027316108346
5184000000.0 -0.001511269947513938 -0.0011468931334093213
5188000000.0 -0.0001132933612097986 0.001473248703405261
5192000000.0 0.0013886329252272844 -0.00041099099325947464
5196000000.0 -0.0006413243827410042 -0.0011066618608310819
5200000000.0 -0.0008288666140288115 0.001293706358410418
5204000000.0 0.0013061098288744688 0.00043625396210700274
5208000000.0 8.5953957750462e-05 -0.0015136634465306997
5212000000.0 -0.001635221065953374 0.0005275585572235286
5216000000.0 0.0010561689268797636 0.0011849211296066642
5220000000.0 0.0007045651436783373 -0.0015516560524702072
5224000000.0 -0.001879367628134787 3.2030173315433785e-05
5228000000.0 0.00043447106145322323 0.0016353362007066607
5232000000.0 0.0014325979864224792 -0.0011619793949648738
5236000000.0 -0.0017575451638549566 -0.0007629109313711524
5240000000.0 7.627656304975972e-05 0.0018940177978947759
5244000000.0 0.002046265173703432 -0.0007878745091147721
5248000000.0 -0.0013168356381356716 -0.0012795591028407216
5252000000.0 -0.0009493989055044949 0.0014886369463056326
5256000000.0 0.0019216089276596904 0.00025597421335987747
5260000000.0 -0.0005379737704060972 -0.0021122090984135866
5264000000.0 -0.0016690152697265148 0.0012785576982423663
5268000000.0 0.0014612301019951701 0.0011289168614894152
5272000000.0 0.0004917319747619331 -0.002006189664825797
5276000000.0 -0.002058327430859208 0.0004533443134278059
5280000000.0 0.0009949986124411225 0.0015237152110785246
5284000000.0 0.0009305749554187059 -0.0017820398788899183
5288000000.0 -0.0017602089792490005 -0.00030637785675935447
5292000000.0 0.0004265817115083337 0.0017382801743224263
5296000000.0 0.0015804299619048834 -0.0009577167220413685
5300000000.0 -0.001304021687246859 -0.0008874866180121899
5304000000.0 -0.0005185622721910477 0.0014790091663599014
5308000000.0 0.0015810484765097499 -0.00010175346687901765
5312000000.0 -0.0008175422553904355 -0.0014205437619239092
5316000000.0 -0.0009413554216735065 0.0010142707033082843
5320000000.0 0.0012387977913022041 0.0008312742575071752
5324000000.0 0.00020017247879877687 -0.0011828237911686301
5328000000.0 -0.0012981828767806292 0.0001647614990361035
5332000000.0 0.0006322533590719104 0.0010964422253891826
5336000000.0 0.0007836786098778248 -0.0009895703988149762
5340000000.0 -0.0011918852105736732 -0.0005494781653396785
5344000000.0 -0.0002911433402914554 0.0014365953393280506
5348000000.0 0.001234659575857222 -0.0003316492075100541
5352000000.0 -0.0007450896664522588 -0.001171562820672989
5356000000.0 -0.0008624096517451108 0.0013896431773900986
5360000000.0 0.001612157910130918 0.00035029492573812604
5364000000.0 -0.00034902055631391704 -0.0014664606424048543
5368000000.0 -0.0013967565027996898 0.0006533908890560269
5372000000.0 0.0011340685887262225 0.0009055124828591943
5376000000.0 0.0007063201628625393 -0.001291875378228724
5380000000.0 -0.0015199556946754456 -0.00018292121239937842
5384000000.0 0.0006089700618758798 0.0014583932934328914
5388000000.0 0.001238868455402553 -0.0008845033007673919
5392000000.0 -0.001513732597231865 -0.0009075452107936144
5396000000.0 -0.0003364233416505158 0.0015779354143887758
5400000000.0 0.0016872825799509883 -0.000318480801070109
5404000000.0 -0.0009257898782379925 -0.0013561841333284974
5408000000.0 -0.0010036613093689084 0.0013003868516534567
5412000000.0 0.0018278983188793063 0.0003570665430743247
5416000000.0 -0.00017231848323717713 -0.0016289146151393652
5420000000.0 -0.0014135554665699601 0.0007400628528557718
5424000000.0 0.0012353761121630669 0.0011652670800685883
5428000000.0 0.00039431004552170634 -0.0016226021107286215
5432000000.0 -0.0015895410906523466 5.6214354117400944e-05
5436000000.0 0.0007018226897343993 0.0013978464994579554
5440000000.0 0.0011384866666048765 -0.0010804677149280906
5444000000.0 -0.0015528748044744134 -0.0005153952515684068
5448000000.0 0.000160418072482571 0.001724444911815226
5452000000.0 0.00141709775198251 -0.0008741257479414344
5456000000.0 -0.0013508143601939082 -0.0011598548153415322
5460000000.0 -0.00040319832623936236 0.001606878824532032
5464000000.0 0.0016689457697793841 -0.0002997450646944344
5468000000.0 -0.0007797401631250978 -0.0012029348872601986
5472000000.0 -0.0008952083298936486 0.0010020165937021375
5476000000.0 0.00125540338922292 0.0002962780126836151
5480000000.0 -0.00015797860396560282 -0.0013167131692171097
5484000000.0 -0.0011372346198186278 0.000592134369071573
5488000000.0 0.0008423465769737959 0.0008740530465729535
5492000000.0 0.000522080110386014 -0.0010517514310777187
5496000000.0 -0.0011049313470721245 -0.00012043764581903815
5500000000.0 0.00019609948503784835 0.0011616754345595837
5504000000.0 0.0010380333987995982 -0.0003631635627243668
5508000000.0 -0.0009528312366455793 -0.0007538157515227795
5512000000.0 -0.0003878423885907978 0.0011095767840743065
5516000000.0 0.0009982928168028593 -3.4208631404908374e-05
5520000000.0 -0.0003839544951915741 -0.001045595738105476
5524000000.0 -0.0009073529508896172 0.0009199944906868041
5528000000.0 0.0010476140305399895 0.000506704964209348
5532000000.0 0.0002180009032599628 -0.00117872201371938
5536000000.0 -0.00101808225736022 0.00048071652418002486
5540000000.0 0.0006238928181119263 0.000944474944844842
5544000000.0 0.0004627796879503876 -0.0008959261467680335
5548000000.0 -0.0011223435867577791 -0.0002321624051546678
5552000000.0 0.00017174352251458913 0.0011055744253098965
5556000000.0 0.000894712982699275 -0.0005630418891087174
5560000000.0 -0.0008117698598653078 -0.0007422101334668696
5564000000.0 -0.00048260498442687094 0.0010912481229752302
5568000000.0 0.0011412864550948143 -0.00012831970525439829
5572000000.0 -0.00046963736531324685 -0.001074261381290853
5576000000.0 -0.000657931377645582 0.0009601940400898457
5580000000.0 0.0008164356695488095 0.00027441594284027815
5584000000.0 0.00010147062130272388 -0.0010492573492228985
5588000000.0 -0.0009123209747485816 0.0004402500344440341
5592000000.0 0.0008109761402010918 0.0008254382410086691
5596000000.0 0.00031183427199721336 -0.001072704209946096
5600000000.0 -0.001014996087178588 2.1585692593362182e-05
5604000000.0 0.000352728005964309 0.0008041653200052679
5608000000.0 0.0006957646692171693 -0.0005663458141498268
5612000000.0 -0.0008847799617797136 -0.0004348832299001515
5616000000.0 4.154653288424015e-05 0.0010488652624189854
5620000000.0 0.0011708347592502832 -0.00013298280828166753
5624000000.0 -0.0005468240124173462 -0.0012053443351760507
5628000000.0 -0.0007696882821619511 0.0011584260500967503
5632000000.0 0.0012386695016175508 0.000136967544676736
5636000000.0 -0.0003031441301573068 -0.0012558989692479372
5640000000.0 -0.0008293820428662002 0.000620395818259567
5644000000.0 0.0008817518246360123 0.0006882852176204324
5648000000.0 0.00018195045413449407 -0.0010626279981806874
5652000000.0 -0.0012503030011430383 0.0002925111330114305
5656000000.0 0.000572914956137538 0.0010767196072265506
5660000000.0 0.000555998005438596 -0.0007983695832081139
5664000000.0 -0.0012146227527409792 -0.0004370973620098084
5668000000.0 0.00014846521662548184 0.0012441088911145926
5672000000.0 0.0007815331919118762 -0.0004132745380047709
5676000000.0 -0.0008963069412857294 -0.0005806785193271935
5680000000.0 -0.000366971391486004 0.0009821695275604725
5684000000.0 0.0010136414784938097 -7.968191494001076e-05
5688000000.0 -0.0003169878327753395 -0.001077688648365438
5692000000.0 -0.0006667425623163581 0.0008272016420960426
5696000000.0 0.0007815866847522557 0.000662023201584816
5700000000.0 1.150574826169759e-05 -0.0010844945209100842
5704000000.0 -0.0011824765242636204 0.00019389332737773657
5708000000.0 0.0005923708085902035 0.0007731998339295387
5712000000.0 0.0006435138056986034 -0.0011099292896687984
5716000000.0 -0.0011081125121563673 -4.720262950286269e-06
5720000000.0 -8.953000360634178e-06 0.0007163072004914284
5724000000.0 0.0008640729356557131 -0.00043693886254914105
5728000000.0 -0.000554985657799989 -0.0008092114003375173
5732000000.0 -0.00039784470573067665 0.0008835249464027584
5736000000.0 0.001043739728629589 -0.00019453665299806744
5740000000.0 -6.480906449723989e-05 -0.0007851793197914958
5744000000.0 -0.0007348006474785507 0.0006866590119898319
5748000000.0 0.00042896237573586404 0.0009650469291955233
5752000000.0 0.00020014276378788054 -0.0009820383274927735
5756000000.0 -0.0009513850091025233 -8.838128997012973e-05
5760000000.0 0.00046250654850155115 0.0008115525124594569
5764000000.0 0.00038297747960314155 -0.0008172754314728081
5768000000.0 -0.0012609013356268406 -0.00041184600559063256
5772000000.0 -0.0001332591928075999 0.0009649708517827094
5776000000.0 0.0010544268880039454 -0.00031714022043161094
5780000000.0 -0.0007053285371512175 -0.0009011479560285807
5784000000.0 -0.00036596422432921827 0.0008003466646187007
5788000000.0 0.0011796002509072423 0.00033600578899495304
5792000000.0 -0.0004975589108653367 -0.0012969182571396232
5796000000.0 -0.0010396884754300117 0.0006484844489023089
5800000000.0 0.001193198375403881 0.0004457479517441243
5804000000.0 0.00018101288878824562 -0.0012660210486501455
5808000000.0 -0.0009807352907955647 -4.0868941141525283e-05
5812000000.0 0.0005129397613927722 0.0008984129526652396
5816000000.0 0.0009494228870607913 -0.0007253169897012413
5820000000.0 -0.0010647010058164597 -0.0002041984407696873
5824000000.0 0.00014009754522703588 0.001311293919570744
5828000000.0 0.0011167353950440884 -0.0003472495300229639
5832000000.0 -0.00044554469059221447 -0.0009385058656334877
5836000000.0 -0.0007054393063299358 0.0011282642371952534
5840000000.0 0.0008632463286630809 0.0004525427066255361
5844000000.0 -0.00010623852722346783 -0.0014375512255355716
5848000000.0 -0.000936552241910249 0.0003413030062802136
5852000000.0 0.000698372139595449 0.0010319402208551764
5856000000.0 0.0002536762331146747 -0.0013790075900033116
5860000000.0 -0.001665107673034072 -0.00011039947276003659
5864000000.0 0.0006407480686903 0.001379370572976768
5868000000.0 0.001055102446116507 -0.0010041211498901248
5872000000.0 -0.0011298018507659435 -0.0002824053808581084
5876000000.0 -6.152725836727768e-05 0.0014709782553836703
5880000000.0 0.0014770382549613714 -0.0004007213283330202
5884000000.0 -0.0011757547035813332 -0.0009676074841991067
5888000000.0 -0.0008170029614120722 0.0014629983343183994
5892000000.0 0.001296169706620276 -9.27029104786925e-05
5896000000.0 -0.0002076507080346346 -0.0009246976696886122
5900000000.0 -0.0010605745483189821 0.0006808391190133989
5904000000.0 0.0009266790584661067 0.0007057233015075326
5908000000.0 0.00047322583850473166 -0.0013263494474813342
5912000000.0 -0.001211131806485355 -7.492276199627668e-05
5916000000.0 0.0008102151332423091 0.0010888974647969007
5920000000.0 0.000658319448120892 -0.0008230416569858789
5924000000.0 -0.0012671829899773002 -0.00025723394355736673
5928000000.0 0.00010328123607905582 0.0010296220425516367
5932000000.0 0.0011781753273680806 -0.0006476270500570536
5936000000.0 -0.0010626339353621006 -0.0008471099426969886
5940000000.0 -0.0002297209284733981 0.0010211479384452105
5944000000.0 0.0009941020980477333 -0.00017608261259738356
5948000000.0 -0.00040273467311635613 -0.0008760615019127727
5952000000.0 -0.0007777976570650935 0.0007208606111817062
5956000000.0 0.0007743659662082791 0.0003825028834398836
5960000000.0 0.00028607918648049235 -0.0008642853354103863
5964000000.0 -0.0009496868005953729 0.00015108415391296148
5968000000.0 0.00031366231269203126 0.0010884497314691544
5972000000.0 0.0008304125512950122 -0.0006035759579390287
5976000000.0 -0.001096807885915041 -0.0004986560088582337
5980000000.0 3.11287039949093e-05 0.0010627417359501123
5984000000.0 0.0011938883690163493 -0.0006556611624546349
5988000000.0 -0.0006567662348970771 -0.0009919238509610295
5992000000.0 -0.0006301198736764491 0.0010766698978841305
5996000000.0 0.0010100370272994041 4.476603862713091e-05
6000000000.0 -0.000284074543742463 -0.0012589519610628486
6004000000.0 -0.0009368345490656793 0.000708398874849081
6008000000.0 0.0011188056087121367 0.0007533928146585822
6012000000.0 0.00019557427731342614 -0.0010208056773990393
6016000000.0 -0.001281746313907206 0.0003258891520090401
6020000000.0 0.0006489965016953647 0.0010982225649058819
6024000000.0 0.0008795636240392923 -0.0010435308795422316
6028000000.0 -0.0011163321323692799 -0.0004233007493894547
6032000000.0 0.00031774258241057396 0.0011652982793748379
6036000000.0 0.0010597598738968372 -0.0008682647021487355
6040000000.0 -0.000931975431740284 -0.0006967640947550535
6044000000.0 -0.00018945406191051006 0.001168702612631023
6048000000.0 0.0009617211180739105 -0.0002534099039621651
6052000000.0 -0.0005193081451579928 -0.0009424154995940626
6056000000.0 -0.0006992544513195753 0.0006610198179259896
6060000000.0 0.001151273027062416 0.00017469564045313746
6064000000.0 -0.00013189924356993288 -0.0011272607371211052
6068000000.0 -0.0010208644671365619 0.0004154821508564055
6072000000.0 0.00048069050535559654 0.0008449512533843517
6076000000.0 0.0006873184465803206 -0.0007500142673961818
6080000000.0 -0.0013585316482931376 -0.00012472849630285054
6084000000.0 4.601426098815864e-06 0.0011946671875193715
6088000000.0 0.001158847939223051 -0.0007543671526946127
6092000000.0 -0.0010341968154534698 -0.000980751821771264
6096000000.0 -0.00019030524708796293 0.001067624194547534
6100000000.0 0.0015670269494876266 -0.00030703385709784925
6104000000.0 -0.0008581285364925861 -0.0015452627558261156
6108000000.0 -0.0007670395425520837 0.0011435856577008963
6112000000.0 0.0014799692435190082 0.00027422807761467993
6116000000.0 -0.00038437588955275714 -0.0017039977246895432
6120000000.0 -0.001198290497995913 0.001060499344021082
6124000000.0 0.0014502721605822444 0.0006250089500099421
6128000000.0 6.370469782268628e-05 -0.0016100998036563396
6132000000.0 -0.0013841042527928948 0.00043491690303198993
6136000000.0 0.0007164691924117506 0.0010963898384943604
6140000000.0 0.0007815893040969968 -0.0009604154620319605
6144000000.0 -0.0011146583128720522 -0.0002404886035947129
6148000000.0 0.0005095626111142337 0.001317397109232843
6152000000.0 0.0009741845424287021 -0.0005979709094390273
6156000000.0 -0.00101580994669348 -0.0007619983516633511
6160000000.0 -0.0002522513968870044 0.001021794741973281
6164000000.0 0.0009881546720862389 0.0002762128133326769
6168000000.0 -0.00036571346572600305 -0.0015250738942995667
6172000000.0 -0.001102319685742259 0.0008195063564926386
6176000000.0 0.0011681871255859733 0.0009232668089680374
6180000000.0 0.00045752894948236644 -0.0012003302108496428
6184000000.0 -0.0015181126073002815 9.029187640408054e-05
6188000000.0 0.0005540330894291401 0.0012905382318422198
6192000000.0 0.0007998255896382034 -0.0011841733939945698
6196000000.0 -0.0015096989227458835 -0.0004678176192101091
6200000000.0 0.00012502563185989857 0.0017430665902793407
6204000000.0 0.0013728751800954342 -0.000886322115547955
6208000000.0 -0.001614724169485271 -0.0010875380830839276
6212000000.0 -0.0001346957142231986 0.0020202407613396645
6216000000.0 0.001895950292237103 -0.00035984726855531335
6220000000.0 -0.0012591792037710547 -0.0012442342704162002
6224000000.0 -0.0007807212532497942 0.0015473288949579
6228000000.0 0.0015236338367685676 0.00020721176406368613
6232000000.0 -0.0003693831095006317 -0.001598504139110446
6236000000.0 -0.0013636968797072768 0.0010295736137777567
6240000000.0 0.0013768429635092616 0.0008937148377299309
6244000000.0 0.00017456719069741666 -0.001486061722971499
6248000000.0 -0.0013258466497063637 0.0002860950480680913
6252000000.0 0.0006429129862226546 0.0012113983975723386
6256000000.0 0.0007872731075622141 -0.0009881147416308522
6260000000.0 -0.0014719873433932662 -0.0007244087173603475
6264000000.0 0.0001149983363575302 0.0013033540453761816
6268000000.0 0.0014267099322751164 -0.0004818240413442254
6272000000.0 -0.0007815243443474174 -0.0012459219433367252
6276000000.0 -0.000753446074668318 0.0012253691675141454
6280000000.0 0.0016496817115694284 0.00037102671922184527
6284000000.0 -1.6297561160172336e-05 -0.0015643045771867037
6288000000.0 -0.0014390278374776244 0.0010416017612442374
6292000000.0 0.0014944259310141206 0.001296163653023541
6296000000.0 0.0005428058793768287 -0.0015827895840629935
6300000000.0 -0.0021047377958893776 0.00029194916714914143
6304000000.0 0.0007428227690979838 0.0016195049975067377
6308000000.0 0.0011241866741329432 -0.0015344282146543264
6312000000.0 -0.002022002823650837 -0.0004728485073428601
6316000000.0 0.0002781815128400922 0.0023688562214374542
6320000000.0 0.0017080488614737988 -0.0011596883414313197
6324000000.0 -0.0017132202628999949 -0.0010910916607826948
6328000000.0 -0.0004722405574284494 0.0022252637427300215
6332000000.0 0.001817228039726615 -0.0005449699237942696
6336000000.0 -0.0011918405070900917 -0.001327971462160349
6340000000.0 -0.0007813376723788679 0.0018051981460303068
6344000000.0 0.0016537160845473409 -0.00011158708366565406
6348000000.0 -0.0004681825521402061 -0.0015170610276982188
6352000000.0 -0.0011738725006580353 0.0010342970490455627
6356000000.0 0.0013770704390481114 0.0006165743106976151
6360000000.0 0.00015146544319577515 -0.001445119851268828
6364000000.0 -0.0012865974567830563 8.462317782687023e-05
6368000000.0 0.0006123893545009196 0.0011501755798235536
6372000000.0 0.001114429789595306 -0.0012006709584966302
6376000000.0 -0.0012940875021740794 -0.0006093006813898683
6380000000.0 -1.9469654944259673e-05 0.0013786067720502615
6384000000.0 0.0014639435103163123 -0.0006679770885966718
6388000000.0 -0.0010841911425814033 -0.0012029878562316298
6392000000.0 -0.0005313719157129526 0.0013143911492079496
6396000000.0 0.001653089770115912 -5.8318117226008326e-05
6400000000.0 -0.0005212631076574326 -0.0015225858660414815
6404000000.0 -0.0012285395059734583 0.001104974653571844
6408000000.0 0.0014252199325710535 0.000746204168535769
6412000000.0 2.4824426873237826e-05 -0.001664352836087346
6416000000.0 -0.001404732814989984 0.0007412000559270382
6420000000.0 0.001149894087575376 0.0010202003177255392
6424000000.0 0.000440180127043277 -0.0015484773321077228
6428000000.0 -0.001258792239241302 0.00018449619528837502
6432000000.0 0.0006259512738324702 0.001414808095432818
6436000000.0 0.0007602266850881279 -0.0011447209399193525
6440000000.0 -0.0013475946616381407 -0.0005622221506200731
6444000000.0 0.00017559512343723327 0.0014171571237966418
6448000000.0 0.0011615193216130137 -0.0009443601593375206
6452000000.0 -0.0009212673758156598 -0.000836974591948092
6456000000.0 -7.165858551161364e-05 0.0012493616668507457
6460000000.0 0.0010361198801547289 -0.00019038966274820268
6464000000.0 -0.0005029374733567238 -0.0008182029705494642
6468000000.0 -0.0004814538115169853 0.0010482037905603647
6472000000.0 0.0013086646795272827 0.00012614086153917015
6476000000.0 -0.00024720837245695293 -0.0010554571636021137
6480000000.0 -0.0008794630412012339 0.0005341217620298266
6484000000.0 0.0011075414950028062 0.0007960202638059855
6488000000.0 0.000376374926418066 -0.0013632986228913069
6492000000.0 -0.001005021738819778 0.0004556768690235913
6496000000.0 0.0010479202028363943 0.0010401562321931124
6500000000.0 0.0003181248321197927 -0.0014578267000615597
6504000000.0 -0.0015485212206840515 2.1542586182476953e-05
6508000000.0 0.0008050911710597575 0.000987629871815443
6512000000.0 0.0005197256687097251 -0.0011874285992234945
6516000000.0 -0.0012662356020882726 0.00011863060353789479
6520000000.0 0.0004823446797672659 0.001121580135077238
6524000000.0 0.0008972855866886675 -0.0006611603312194347
6528000000.0 -0.0012420967686921358 -0.0005159120191819966
6532000000.0 0.00021304930851329118 0.0013627648586407304
6536000000.0 0.0012396239908412099 -0.0007129320874810219
6540000000.0 -0.001152537064626813 -0.0007815835415385664
6544000000.0 -0.00024448297335766256 0.0012411792995408177
6548000000.0 0.0010240576229989529 -0.00016820096061564982
6552000000.0 -0.0006411701906472445 -0.0010270719649270177
6556000000.0 -0.0006356533267535269 0.0008621059823781252
6560000000.0 0.0008816043846309185 0.0001566823775647208
6564000000.0 -0.00022392887331079692 -0.0012533243279904127
6568000000.0 -0.0007148306467570364 0.0005013649351894855
6572000000.0 0.0009595283772796392 0.0006954577984288335
6576000000.0 0.000285131303826347 -0.0009311339817941189
6580000000.0 -0.0012217677431181073 5.3290634241420776e-05
6584000000.0 0.000510718731675297 0.0012555544963106513
6588000000.0 0.000708152016159147 -0.0011328718392178416
6592000000.0 -0.0011459633242338896 -0.00019619165686890483
6596000000.0 0.0002298577455803752 0.0010343568865209818
6600000000.0 0.0012481232406571507 -0.0007984979311004281
6604000000.0 -0.0013420330360531807 -0.0006213487940840423
6608000000.0 1.8152662732973113e-06 0.0015468577621504664
6612000000.0 0.0013677612878382206 -0.0007971857558004558
6616000000.0 -0.0008423670078627765 -0.0009212500881403685
6620000000.0 -0.0002167041675420478 0.0014151306822896004
6624000000.0 0.0013401011237874627 -0.00014952434867154807
6628000000.0 -0.0008046558941714466 -0.001397941610775888
6632000000.0 -0.0007426257943734527 0.001426538685336709
6636000000.0 0.0015249090502038598 0.00017130270134657621
6640000000.0 -0.0006144947838038206 -0.0013428468955680728
6644000000.0 -0.000732614251319319 0.0010212803026661277
6648000000.0 0.0009265380213037133 0.00024801306426525116
6652000000.0 -0.00017734087305143476 -0.0012838405091315508
6656000000.0 -0.0010116399498656392 0.00032205975730903447
6660000000.0 0.0007802938926033676 0.0008559446432627738
6664000000.0 0.0005523504805751145 -0.0010616902727633715
6668000000.0 -0.0014036836801096797 -8.290857658721507e-05
6672000000.0 0.00019392353715375066 0.0013723743613809347
6676000000.0 0.0009959746384993196 -0.0007350536761805415
6680000000.0 -0.0012600537156686187 -0.000494743580929935
6684000000.0 -9.022041194839403e-05 0.00157098937779665
6688000000.0 0.0012460885336622596 -0.0005556765827350318
6692000000.0 -0.0010121719678863883 -0.0008768285624682903
6696000000.0 -0.0004869867698289454 0.0013198083033785224
6700000000.0 0.001335778972133994 2.3996153686312027e-05
6704000000.0 -0.0005040935939177871 -0.001264885882847011
6708000000.0 -0.0010958065977320075 0.0008828911813907325
6712000000.0 0.0012583443894982338 0.0005167712806724012
6716000000.0 -3.9856098737800494e-05 -0.001468205009587109
6720000000.0 -0.0010272599756717682 0.0006563704228028655
6724000000.0 0.0009175021550618112 0.0011470811441540718
6728000000.0 0.00046750420005992055 -0.0016035352600738406
6732000000.0 -0.0015450421487912536 0.0002452762855682522
6736000000.0 0.0007099320064298809 0.0015395424561575055
6740000000.0 0.0011762178037315607 -0.0013616812648251653
6744000000.0 -0.002036920515820384 -0.0010521040530875325
6748000000.0 2.7315074476064183e-05 0.0024262485094368458
6752000000.0 0.002120531629770994 -0.0014748282264918089
6756000000.0 -0.0022029532119631767 -0.0009684512624517083
6760000000.0 5.863511614734307e-05 0.002677415730431676
6764000000.0 0.002188686514273286 -0.0013342081801965833
6768000000.0 -0.0018197393510490656 -0.0012525200145319104
6772000000.0 -0.00025508555700071156 0.0019871441181749105
6776000000.0 0.0020825581159442663 3.3275996429438237e-06
6780000000.0 -0.0009574026335030794 -0.0017353955190628767
6784000000.0 -0.0013459512265399098 0.001509564695879817
6788000000.0 0.0020972806960344315 0.0005422891699708998
6792000000.0 -0.0003481132735032588 -0.002271408447995782
6796000000.0 -0.0018960125744342804 0.0011725238291546702
6800000000.0 0.0017499638488516212 0.0012988471426069736
6804000000.0 0.0007463626679964364 -0.0021718472708016634
6808000000.0 -0.002396852010861039 0.0002736962051130831
6812000000.0 0.0011720644542947412 0.0022209021262824535
6816000000.0 0.001592896762304008 -0.0015319791855290532
6820000000.0 -0.0021612397395074368 -0.0006128199747763574
6824000000.0 -0.00021974333503749222 0.002190871862694621
6828000000.0 0.0019095804309472442 -0.0011641409946605563
6832000000.0 -0.0018670487916097045 -0.0016856263391673565
6836000000.0 -0.0012066636700183153 0.001998057821765542
6840000000.0 0.002576980507001281 0.0005202700267545879
6844000000.0 -0.0005840473459102213 -0.002441560849547386
6848000000.0 -0.002154102548956871 0.001656934036873281
6852000000.0 0.0028105375822633505 0.001260543242096901
6856000000.0 -0.0004787173238582909 -0.0028410761151462793
6860000000.0 -0.0023552197962999344 0.001481018029153347
6864000000.0 0.002145668724551797 0.0013953038724139333
6868000000.0 0.0005453655612654984 -0.002851716475561261
6872000000.0 -0.002398722805082798 0.0003045921912416816
6876000000.0 0.0013392494292929769 0.001834296970628202
6880000000.0 0.001536390045657754 -0.0014691607793793082
6884000000.0 -0.0018362225964665413 -0.0009211914148181677
6888000000.0 -0.0003081694303546101 0.0017514312639832497
6892000000.0 0.002171433065086603 -0.00021355903299991041
6896000000.0 -0.0010276761604472995 -0.0022168115247040987
6900000000.0 -0.0019212564220651984 0.0017976048402488232
6904000000.0 0.0027238435577601194 0.0011921213008463383
6908000000.0 9.87369548965944e-06 -0.003507806221023202
6912000000.0 -0.0034550116397440434 0.0019237900851294398
6916000000.0 0.003304879879578948 0.0017172633670270443
6920000000.0 -0.00015523217734880745 -0.0035342732444405556
6924000000.0 -0.002591515891253948 0.0013287953333929181
6928000000.0 0.002034331439062953 0.0017751117702573538
6932000000.0 0.001190072507597506 -0.0021369934547692537
6936000000.0 -0.0023377889301627874 -0.00021515284606721252
6940000000.0 0.0005044791614636779 0.002503280295059085
6944000000.0 0.002266261028125882 -0.00140480138361454
6948000000.0 -0.002075358759611845 -0.0015665231039747596
6952000000.0 -0.0005610908847302198 0.0025522266514599323
6956000000.0 0.0026326936203986406 -0.00041006648098118603
6960000000.0 -0.001464793924242258 -0.0022339224815368652
6964000000.0 -0.0014001816743984818 0.002227863995358348
6968000000.0 0.0024509839713573456 0.0004854205180890858
6972000000.0 -0.00015866468311287463 -0.0022768513299524784
6976000000.0 -0.001858773292042315 0.0008548916666768491
6980000000.0 0.001330664148554206 0.001167523441836238
6984000000.0 0.0009696334600448608 -0.0017116686794906855
6988000000.0 -0.001843985985033214 -0.0002877705846913159
6992000000.0 0.0005238881567493081 0.001590323867276311
6996000000.0 0.001812346512451768 -0.000851999968290329
7000000000.0 -0.0014880666276440024 -0.0016126949340105057
7004000000.0 -0.0013121237279847264 0.0017906413413584232
7008000000.0 0.0022420729510486126 0.0009494978585280478
7012000000.0 0.00023888582654763013 -0.0030582714825868607
7016000000.0 -0.0032811216078698635 0.0013888976536691189
7020000000.0 0.003201667917892337 0.0022299522534012794
7024000000.0 0.0007498745108023286 -0.004225699231028557
7028000000.0 -0.004151450004428625 0.0018380446126684546
7032000000.0 0.0035587437450885773 0.0027096164412796497
7036000000.0 0.00032144441502168775 -0.0043240999802947044
7040000000.0 -0.00384344719350338 0.0010825464269146323
7044000000.0 0.0023483927361667156 0.0025262662675231695
7048000000.0 0.001423572190105915 -0.002411339897662401
7052000000.0 -0.002837838837876916 -0.0006082821055315435
7056000000.0 0.00010037927859229967 0.0030266076792031527
7060000000.0 0.003000902943313122 -0.0010920136701315641
7064000000.0 -0.0022843056358397007 -0.0028205052949488163
7068000000.0 -0.0014219272416085005 0.0037117451429367065
7072000000.0 0.00447943527251482 -0.0004921912914142013
7076000000.0 -0.002666387939825654 -0.0036024542059749365
7080000000.0 -0.0014471912290900946 0.004118448123335838
7084000000.0 0.0037473617121577263 -0.00032404414378106594
7088000000.0 -0.0014402297092601657 -0.0025887598749250174
7092000000.0 -0.0016642173286527395 0.0017125646118074656
7096000000.0 0.001881319796666503 0.0009068158105947077
7100000000.0 0.0005646973731927574 -0.0021249870769679546
7104000000.0 -0.002107914537191391 0.000267013325355947
7108000000.0 0.0010490636341273785 0.002007280243560672
7112000000.0 0.0020546899177134037 -0.0014023131225258112
7116000000.0 -0.0020589977502822876 -0.0014467880828306079
7120000000.0 -0.0006712765898555517 0.0026981807313859463
7124000000.0 0.00316518172621727 -0.0002671931288205087
7128000000.0 -0.0018587590893730521 -0.002967552049085498
7132000000.0 -0.0017568743787705898 0.0032870923168957233
7136000000.0 0.003821849822998047 0.00016966952534858137
7140000000.0 -0.0020992751233279705 -0.0029130366165190935
7144000000.0 -0.001277106232009828 0.002233685227110982
7148000000.0 0.0022413607221096754 0.0012971512041985989
7152000000.0 0.0005134935490787029 -0.0025844492483884096
7156000000.0 -0.002538404194638133 0.0002817209460772574
7160000000.0 0.001075678039342165 0.0023048899602144957
7164000000.0 0.0016979289939627051 -0.001723297405987978
7168000000.0 -0.002756439382210374 -0.0015224575763568282
7172000000.0 -0.0004927543923258781 0.003171361982822418
7176000000.0 0.0035891318693757057 -0.001286973711103201
7180000000.0 -0.002796170534566045 -0.0029551670886576176
7184000000.0 -0.0019394888076931238 0.0037478029262274504
7188000000.0 0.00449722446501255 0.00031880164169706404
7192000000.0 -0.002129095606505871 -0.004285967908799648
7196000000.0 -0.0025315904058516026 0.003847596002742648
7200000000.0 0.004615467507392168 0.0005886384751647711
7204000000.0 -0.0010125591652467847 -0.004070712719112635
7208000000.0 -0.002941037295386195 0.0023250875528901815
7212000000.0 0.0035589179024100304 0.0018357528606429696
7216000000.0 0.0008313524886034429 -0.003342663636431098
7220000000.0 -0.004049117676913738 0.00043564895167946815
7224000000.0 0.0016633112682029605 0.0035377556923776865
7228000000.0 0.0029567370656877756 -0.00273839826695621
7232000000.0 -0.004014113452285528 -0.0022386591881513596
7236000000.0 -0.0002410395973129198 0.005324248690158129
7240000000.0 0.005095284432172775 -0.0025898581370711327
7244000000.0 -0.005472833756357431 -0.003467696951702237
7248000000.0 0.0005096883978694677 0.005891508422791958
7252000000.0 0.004380539525300264 -0.002739133546128869
7256000000.0 -0.003277312032878399 -0.002323246095329523
7260000000.0 -0.0006057023419998586 0.003146070521324873
7264000000.0 0.003066862467676401 -0.0002010491007240489
7268000000.0 -0.0008201810414902866 -0.0027486926410347223
7272000000.0 -0.0023628694470971823 0.0014681422617286444
7276000000.0 0.00245201145298779 0.0018183088395744562
7280000000.0 0.001296127331443131 -0.0024367927107959986
7284000000.0 -0.002877663355320692 -0.00039419293170794845
7288000000.0 0.00037457182770594954 0.00336301582865417
7292000000.0 0.0029642696026712656 -0.002073209499940276
7296000000.0 -0.003472129348665476 -0.002195372711867094
7300000000.0 0.0008396206540055573 0.003828491549938917
7304000000.0 0.0029416275210678577 -0.0029318667948246002
7308000000.0 -0.0022574074100703 -0.0008589308708906174
7312000000.0 -0.000896986573934555 0.001959278481081128
7316000000.0 0.0019264118745923042 0.000819705193862319
7320000000.0 0.00027784722624346614 -0.002326974179595709
7324000000.0 -0.0024735170882195234 0.0008430952439084649
7328000000.0 0.0019390551606193185 0.002493049018085003
7332000000.0 0.0015267212875187397 -0.003003318328410387
7336000000.0 -0.0031170216389000416 -0.0007799630402587354
7340000000.0 0.0003169989795424044 0.0035018331836909056
7344000000.0 0.003650893922895193 -0.002224411116912961
7348000000.0 -0.004016611259430647 -0.0026398329064249992
7352000000.0 -0.0005968969198875129 0.0054615568369627
7356000000.0 0.00470928568392992 -0.0020933866035193205
7360000000.0 -0.0039141178131103516 -0.0027838079258799553
7364000000.0 -0.0012886036420240998 0.004197798203676939
7368000000.0 0.004017965402454138 -0.0002890767646022141
7372000000.0 -0.0017751643899828196 -0.003488672198727727
7376000000.0 -0.0024016250390559435 0.0030145696364343166
7380000000.0 0.0033591841347515583 0.0012952244142070413
7384000000.0 -0.00014080002438277006 -0.0037548516411334276
7388000000.0 -0.003000208642333746 0.001180287217721343
7392000000.0 0.001573180896230042 0.002412032103165984
7396000000.0 0.0020817434415221214 -0.0021850017365068197
7400000000.0 -0.0028493923600763083 -0.0013157239882275462
7404000000.0 -0.00077869335655123 0.0037331876810640097
7408000000.0 0.004368667956441641 -0.000831644400022924
7412000000.0 -0.003453625598922372 -0.004378472454845905
7416000000.0 -0.0018968101358041167 0.005669153295457363
7420000000.0 0.005564856342971325 -0.0016243435675278306
7424000000.0 -0.003430940443649888 -0.003982672933489084
7428000000.0 -0.0015454282984137535 0.004367071203887463
7432000000.0 0.003420392982661724 -0.0008777330513112247
7436000000.0 -0.0008904201094992459 -0.0021255691535770893
7440000000.0 -0.0020162416622042656 0.0014216996496543288
7444000000.0 0.0016412893310189247 0.0020389482378959656
7448000000.0 0.0011071336921304464 -0.0021035003010183573
7452000000.0 -0.002864172914996743 -0.000542661000508815
7456000000.0 0.0002168923383578658 0.003118793247267604
7460000000.0 0.00308988057076931 -0.0013588458532467484
7464000000.0 -0.0024105384945869446 -0.0027340694796293974
7468000000.0 -0.00195279938634485 0.004003976937383413
7472000000.0 0.0046575977467000484 0.00011674827692331746
7476000000.0 -0.0015981857432052493 -0.0041154902428388596
7480000000.0 -0.0028686104342341423 0.004180932883173227
7484000000.0 0.004925387911498547 0.0009295498603023589
7488000000.0 -0.001322935102507472 -0.0044720894657075405
7492000000.0 -0.0034514826256781816 0.002763906726613641
7496000000.0 0.003597699338570237 0.0015180711634457111
7500000000.0 0.00038250070065259933 -0.0038033844903111458
7504000000.0 -0.0038678429555147886 0.0005947466706857085
7508000000.0 0.002556411549448967 0.0033222371712327003
7512000000.0 0.0014792599249631166 -0.0036351445596665144
7516000000.0 -0.0028555041644722223 -0.00044527120189741254
7520000000.0 -8.71347583597526e-06 0.0031746933236718178
7524000000.0 0.003017934039235115 -0.0012452382361516356
7528000000.0 -0.0024244075175374746 -0.002490507671609521
7532000000.0 -0.0015381955308839679 0.0032561300322413445
7536000000.0 0.003461988177150488 0.00019500317284837365
7540000000.0 -0.0008039870881475508 -0.0033170636743307114
7544000000.0 -0.0023919676896184683 0.002081369748339057
7548000000.0 0.003241289872676134 0.001960093853995204
7552000000.0 0.0012809226755052805 -0.003139723092317581
7556000000.0 -0.0035017996560782194 0.0002484762517269701
7560000000.0 0.0013243956491351128 0.003146266797557473
7564000000.0 0.003706946037709713 -0.0024440607521682978
7568000000.0 -0.0048562949523329735 -0.0029483011458069086
7572000000.0 0.0002828907163348049 0.006731322500854731
7576000000.0 0.006104223895817995 -0.004821743816137314
7580000000.0 -0.007375228684395552 -0.0017243592301383615
7584000000.0 0.002713320776820183 0.006590993143618107
7588000000.0 0.0029603366274386644 -0.005139979533851147
7592000000.0 -0.004221397452056408 -0.0005439172382466495
7596000000.0 0.0008521897252649069 0.0033057532273232937
7600000000.0 0.002726789331063628 -0.0015519217122346163
7604000000.0 -0.0015483391471207142 -0.002047031419351697
7608000000.0 -0.0010686730965971947 0.0020740285981446505
7612000000.0 0.002468571299687028 0.0009239964419975877
7616000000.0 -0.00012325965508352965 -0.002422509016469121
7620000000.0 -0.002646956592798233 0.0008155924151651561
7624000000.0 0.0014651687815785408 0.0020881211385130882
7628000000.0 0.001682986505329609 -0.0023399097844958305
7632000000.0 -0.0032228543423116207 -0.0008278620662167668
7636000000.0 0.0002851949247997254 0.0032504943665117025
7640000000.0 0.0031901656184345484 -0.0017042371910065413
7644000000.0 -0.0031453652773052454 -0.002441447228193283
7648000000.0 -0.0008980228449217975 0.004090703092515469
7652000000.0 0.004018721636384726 -0.001078748726285994
7656000000.0 -0.0025620837695896626 -0.002966371364891529
7660000000.0 -0.0014637798303738236 0.003447494003921747
7664000000.0 0.0035140356048941612 0.0002722246281336993
7668000000.0 -0.0006857477710582316 -0.003561548888683319
7672000000.0 -0.003235448617488146 0.001977211330085993
7676000000.0 0.0029631960205733776 0.0027507201302796602
7680000000.0 0.0012854463420808315 -0.003698241664096713
7684000000.0 -0.0037775677628815174 -0.00047195659135468304
7688000000.0 0.0013520652428269386 0.004017242696136236
7692000000.0 0.003925704397261143 -0.002515398198738694
7696000000.0 -0.0043322499841451645 -0.002676747040823102
7700000000.0 -0.0011289214016869664 0.006606502458453178
7704000000.0 0.007104363292455673 -0.002063649008050561
7708000000.0 -0.006511969026178122 -0.005651078186929226
7712000000.0 -0.0013337507843971252 0.00879119336605072
7716000000.0 0.008157466538250446 -0.0031028680969029665
7720000000.0 -0.006662205792963505 -0.00501982169225812
7724000000.0 -0.000888979877345264 0.007431910373270512
7728000000.0 0.006522970274090767 -0.002021601889282465
7732000000.0 -0.004330243915319443 -0.004730127286165953
7736000000.0 -0.0019806260243058205 0.005030892323702574
7740000000.0 0.0048688072711229324 -0.00015682788216508925
7744000000.0 -0.0013317178236320615 -0.0038439324125647545
7748000000.0 -0.0035769289825111628 0.0025035925209522247
7752000000.0 0.0035419571213424206 0.002030190546065569
7756000000.0 0.0011638038558885455 -0.003503228072077036
7760000000.0 -0.0033562222961336374 -0.00037210076698102057
7764000000.0 0.0012370061594992876 0.002711758017539978
7768000000.0 0.002644394990056753 -0.0016753741074353456
7772000000.0 -0.0026807792019098997 -0.0019420406315475702
7776000000.0 -0.0016940076602622867 0.003020134288817644
7780000000.0 0.003667595097795129 0.0005471422336995602
7784000000.0 -0.0016413750126957893 -0.0036364980041980743
7788000000.0 -0.0027695391327142715 0.0015139990719035268
7792000000.0 0.0013510078424587846 0.00308076199144125
7796000000.0 0.005086400080472231 -0.004869834985584021
7800000000.0 -0.01240492146462202 -0.0007823092164471745
7804000000.0 0.01055933814495802 0.008188069798052311
7808000000.0 0.0005124532617628574 -0.009564359672367573
7812000000.0 -0.00690738670527935 0.0037731279153376818
7816000000.0 0.0059701427817344666 0.004349421244114637
7820000000.0 0.0014173330273479223 -0.006294745486229658
7824000000.0 -0.005669838283210993 0.0005157336127012968
7828000000.0 0.002801032504066825 0.004110276233404875
7832000000.0 0.0021109026856720448 -0.0027468325570225716
7836000000.0 -0.00322780036367476 -0.0012504847254604101
7840000000.0 -0.0012064410839229822 0.0027478563133627176
7844000000.0 0.0033954584505409002 0.00022675818763673306
7848000000.0 -0.0006880460423417389 -0.003927106037735939
7852000000.0 -0.003554335795342922 0.0017519881948828697
7856000000.0 0.003379419445991516 0.0038360997568815947
7860000000.0 0.0022381353192031384 -0.0056009856052696705
7864000000.0 -0.007672696840018034 0.00025609071599319577
7868000000.0 0.0067213443107903 0.006740798242390156
7872000000.0 0.0014692023396492004 -0.008909356780350208
7876000000.0 -0.006463488098233938 0.002438786905258894
7880000000.0 0.004005364142358303 0.00359867955558002
7884000000.0 0.0015103166224434972 -0.004066292196512222
7888000000.0 -0.003995476756244898 -0.000594558019656688
7892000000.0 0.0007199708488769829 0.0038267557974904776
7896000000.0 0.003339965594932437 -0.001199348596855998
7900000000.0 -0.0022536693140864372 -0.00272498931735754
7904000000.0 -0.0025703932624310255 0.002511118073016405
7908000000.0 0.003339482704177499 0.001567764556966722
7912000000.0 0.000801320478785783 -0.0042441850528120995
7916000000.0 -0.005164740607142448 0.0008967445464804769
7920000000.0 0.0035909179132431746 0.00473602581769228
7924000000.0 0.002625082153826952 -0.004243739880621433
7928000000.0 -0.006093002390116453 0.000394238653825596
7932000000.0 0.0030756171327084303 0.0060922615230083466
7936000000.0 0.004208085127174854 -0.0035878648050129414
7940000000.0 -0.005126853007823229 -0.0028302050195634365
7944000000.0 -0.0008315529557876289 0.005680132657289505
7948000000.0 0.0058927712962031364 -0.0012281022500246763
7952000000.0 -0.0033947930205613375 -0.006431685294955969
7956000000.0 -0.006293530575931072 0.006497768685221672
7960000000.0 0.012644380331039429 0.0022674493957310915
7964000000.0 -0.009164664894342422 -0.014248175546526909
7968000000.0 0.0006943090702407062 0.016491621732711792
7972000000.0 0.005870047491043806 -0.007055722177028656
7976000000.0 -0.00519261509180069 -0.002148060593754053
7980000000.0 -0.0005272306152619421 0.0040053133852779865
7984000000.0 0.00354358134791255 0.0001929258432937786
7988000000.0 -0.0005067952442914248 -0.0032534075435250998
7992000000.0 -0.0028660756070166826 0.0011230348609387875
7996000000.0 0.0014787950785830617 0.0019979451317340136
8000000000.0 0.002896674210205674 -0.003281562589108944
