! Created with skrf 1.10.0 (http://scikit-rf.org).
# Hz S RI R 50.0 
!freq ReS11 ImS11
!
6000000000.0 0.00041389765101484954 0.0012340157991275191
6001000000.0 0.0011206051567569375 0.0008745610248297453
6002000000.0 0.001222261693328619 0.0004605417198035866
6003000000.0 0.0012385823065415025 -0.0004735621914733201
6004000000.0 0.0009464575559832156 -0.0007283178274519742
6005000000.0 0.0004959080251865089 -0.0011787904659286141
6006000000.0 -0.00010095396282849833 -0.0012221098877489567
6007000000.0 -0.0008459719247184694 -0.001075458712875843
6008000000.0 -0.0012449073838070035 -0.0005844322149641812
6009000000.0 -0.0010948330163955688 0.00011345047096256167
6010000000.0 -0.0009252988966181874 0.0006403696024790406
6011000000.0 -0.0005716196610592306 0.0010340020526200533
6012000000.0 -2.19681878661504e-05 0.0011891907779499888
6013000000.0 0.0004872838908340782 0.0011301942868158221
6014000000.0 0.0010005064541473985 0.0008750088163651526
6015000000.0 0.001066977041773498 0.00025118631310760975
6016000000.0 0.0009145902004092932 -0.00038955366471782327
6017000000.0 0.0008045945432968438 -0.0007921030628494918
6018000000.0 0.0002668238594196737 -0.0009771861368790269
6019000000.0 -0.0003049634105991572 -0.0010484640952199697
6020000000.0 -0.000628569396212697 -0.0008318014442920685
6021000000.0 -0.0010503208031877875 -0.0003439201391302049
6022000000.0 -0.0009763386915437877 0.00024756553466431797
6023000000.0 -0.0008010775200091302 0.000694273563567549
6024000000.0 -0.0005103871808387339 0.0009311618632636964
6025000000.0 -1.1943811841774732e-05 0.0008631906821392477
6026000000.0 0.00038300047162920237 0.0008632363169454038
6027000000.0 0.0008335959282703698 0.0006821434362791479
6028000000.0 0.0010087250266224146 0.00019028496171813458
6029000000.0 0.0008771484135650098 -0.00038815574953332543
6030000000.0 0.0005618307623080909 -0.0007764013716951013
6031000000.0 0.0001996573992073536 -0.0008849934674799442
6032000000.0 -0.0002860453969333321 -0.0008572411024942994
6033000000.0 -0.0006371363415382802 -0.0005633954424411058
6034000000.0 -0.0008982934523373842 -0.00024181243497878313
6035000000.0 -0.0009740469977259636 7.381318573607132e-05
6036000000.0 -0.0008468916057609022 0.0004860356275457889
6037000000.0 -0.0005136963445693254 0.0007961172959767282
6038000000.0 9.033764217747375e-05 0.0008994329255074263
6039000000.0 0.00032487596035934985 0.0008867007563821971
6040000000.0 0.0008262109477072954 0.0005427004070952535
6041000000.0 0.0008172316011041403 0.00019618222722783685
6042000000.0 0.0008685939246788621 -8.100490231299773e-05
6043000000.0 0.0006477534770965576 -0.0006694478215649724
6044000000.0 0.00021969959198031574 -0.0009283199324272573
6045000000.0 -0.00022396884742192924 -0.0008858536602929235
6046000000.0 -0.000502348062582314 -0.0007581771933473647
6047000000.0 -0.0008352485601790249 -0.00042478780960664153
6048000000.0 -0.0008386400295421481 7.865842781029642e-05
6049000000.0 -0.0006975907599553466 0.00031348856282420456
6050000000.0 -0.0005734649603255093 0.0008007804281078279
6051000000.0 -0.00014366672257892787 0.0008314639562740922
6052000000.0 0.00035692943492904305 0.00088633963605389
6053000000.0 0.000542429625056684 0.0004636732628569007
6054000000.0 0.0008645171183161438 0.0002828768629115075
6055000000.0 0.00093578000087291 -0.00018156364967580885
6056000000.0 0.0007234216900542378 -0.0006157941534183919
6057000000.0 0.0003781373961828649 -0.0009630396962165833
6058000000.0 -8.836235065246001e-05 -0.0008502674754709005
6059000000.0 -0.0005145061877556145 -0.0008542370051145554
6060000000.0 -0.0007767791394144297 -0.0004736922273878008
6061000000.0 -0.0009174800361506641 -4.269482451491058e-05
6062000000.0 -0.0007243745494633913 0.00043779370025731623
6063000000.0 -0.0007119789952412248 0.0008047734154388309
6064000000.0 -3.415302489884198e-05 0.0008045301074162126
6065000000.0 0.0002363519452046603 0.000933213101234287
6066000000.0 0.0005758210900239646 0.000641946098767221
6067000000.0 0.0010013203136622906 0.0003436002880334854
6068000000.0 0.0008204845944419503 -0.00020280698663555086
6069000000.0 0.0007758900173939764 -0.0006200705538503826
6070000000.0 0.00039920787094160914 -0.0008684699423611164
6071000000.0 -0.00022254858049564064 -0.0009261805098503828
6072000000.0 -0.000523922557476908 -0.0008070548065006733
6073000000.0 -0.0008702164050191641 -0.0005193084944039583
6074000000.0 -0.0010872881393879652 0.00013015833974350244
6075000000.0 -0.0009635611204430461 0.0004971891758032143
6076000000.0 -0.0005395446787588298 0.0009241387015208602
6077000000.0 -0.0002682995400391519 0.0010633132187649608
6078000000.0 0.00041411412530578673 0.001052709762006998
6079000000.0 0.0008008404984138906 0.0006589735858142376
6080000000.0 0.0008060537511482835 0.00014002487296238542
6081000000.0 0.0009819136466830969 -0.00034498359309509397
6082000000.0 0.0007105426047928631 -0.000685376871842891
6083000000.0 0.00042582376045174897 -0.0008483186247758567
6084000000.0 -0.00019628753943834454 -0.0009842279832810163
6085000000.0 -0.000493182975333184 -0.0006687132408842444
6086000000.0 -0.0009735361090861261 -0.00034048777888529
6087000000.0 -0.000800668669398874 0.00017019840015564114
6088000000.0 -0.0009638038463890553 0.000411544693633914
6089000000.0 -0.0004923819797113538 0.0008634901023469865
6090000000.0 -6.774098437745124e-05 0.0010700117563828826
6091000000.0 0.0003871000080835074 0.0009198087500408292
6092000000.0 0.0006369195180013776 0.0005382479866966605
6093000000.0 0.0009640147909522057 0.00014155426470097154
6094000000.0 0.0010794545523822308 -0.0005065362202003598
6095000000.0 0.0006517205620184541 -0.0008038703817874193
6096000000.0 0.0003335362998768687 -0.0009486283524893224
6097000000.0 -1.4455875316343736e-05 -0.0009937362046912313
6098000000.0 -0.0005421461537480354 -0.0006709899171255529
6099000000.0 -0.0008376871701329947 -0.0004806063952855766
6100000000.0 -0.0009442996815778315 0.00010709733760450035
6101000000.0 -0.0007584771956317127 0.0007017614552751184
6102000000.0 -0.0004493672167882323 0.0008686473593115807
6103000000.0 -0.0001022211872623302 0.00115874782204628
6104000000.0 0.00046488738735206425 0.0007061823271214962
6105000000.0 0.000902262341696769 0.0007605984574183822
6106000000.0 0.0011892548063769937 0.0002958354016300291
6107000000.0 0.0009281362872570753 -0.00021127771469764411
6108000000.0 0.0006748923915438354 -0.0007436609012074769
6109000000.0 0.00016793792019598186 -0.0009432169026695192
6110000000.0 -0.0003645811229944229 -0.0008807912818156183
6111000000.0 -0.0005153713864274323 -0.0009352220804430544
6112000000.0 -0.0008258391171693802 -0.00040563588845543563
6113000000.0 -0.0010512747103348374 0.00016450104885734618
6114000000.0 -0.0009410691563971341 0.0006847578915767372
6115000000.0 -0.00048597343266010284 0.001089928555302322
6116000000.0 7.639017712790519e-05 0.0009118154412135482
6117000000.0 0.0004775838751811534 0.0007415221189148724
6118000000.0 0.0008694545249454677 0.0006036250852048397
6119000000.0 0.0012013299856334925 0.00028619947261177003
6120000000.0 0.0009910413064062595 -0.0003262384270783514
6121000000.0 0.000856763799674809 -0.0008259940659627318
6122000000.0 0.00012385164154693484 -0.0012673871824517846
6123000000.0 -0.00022242186241783202 -0.000892910931725055
6124000000.0 -0.0006631268188357353 -0.0007877017487771809
6125000000.0 -0.0010198361705988646 -0.0002294508449267596
6126000000.0 -0.0009616311872377992 5.519558908417821e-05
6127000000.0 -0.0006605880917049944 0.0005762732471339405
6128000000.0 -0.0006589877884835005 0.0009909915970638394
6129000000.0 0.0001840904587879777 0.0010012994753196836
6130000000.0 0.0004651995259337127 0.0010982620296999812
6131000000.0 0.000974178547039628 0.0006858432316221297
6132000000.0 0.0011141495779156685 -0.0001323414471698925
6133000000.0 0.000904840708244592 -0.00041051427251659334
6134000000.0 0.0007680087583139539 -0.0008917787345126271
6135000000.0 9.145648800767958e-05 -0.0011180811561644077
6136000000.0 -0.0004954298492521048 -0.0010673507349565625
6137000000.0 -0.0009761053952388465 -0.0007852838025428355
6138000000.0 -0.0013267591129988432 -0.0002232723927590996
6139000000.0 -0.0011335595045238733 0.0003369136538822204
6140000000.0 -0.0007747983909212053 0.0007080725044943392
6141000000.0 -0.0002925354056060314 0.001186177134513855
6142000000.0 0.00014419801300391555 0.0009620831697247922
6143000000.0 0.0007247107569128275 0.001074371044524014
6144000000.0 0.00108234619256109 0.00041417989996261895
6145000000.0 0.0012412079377099872 -0.00015558958693873137
6146000000.0 0.0009828688343986869 -0.0005612635868601501
6147000000.0 0.0004180429968982935 -0.0011594230309128761
6148000000.0 -9.008844790514559e-05 -0.0010685776360332966
6149000000.0 -0.0005117052933201194 -0.0008937350939959288
6150000000.0 -0.0008332495344802737 -0.00046505482168868184
6151000000.0 -0.001033815206028521 -0.0001185882356367074
6152000000.0 -0.0010443741921335459 0.00032330991234630346
6153000000.0 -0.0007332789828069508 0.0007804688066244125
6154000000.0 -0.00023178831906989217 0.0009538477170281112
6155000000.0 0.00024051345826592296 0.0010906943352892995
6156000000.0 0.0007222056156024337 0.0007800314342603087
6157000000.0 0.0009637603652663529 0.0004251074278727174
6158000000.0 0.00100022554397583 -6.050194861018099e-05
6159000000.0 0.0008825630648061633 -0.0005794409080408514
6160000000.0 0.00048817694187164307 -0.0009376920643262565
6161000000.0 -6.524601485580206e-05 -0.0008665545028634369
6162000000.0 -0.0005691840779036283 -0.0008590222569182515
6163000000.0 -0.0008750391425564885 -0.000529700715560466
6164000000.0 -0.000844153284560889 -0.00016334120300598443
6165000000.0 -0.0008670141105540097 0.0003545770305208862
6166000000.0 -0.0006814147927798331 0.0007880603661760688
6167000000.0 -0.00021476150141097605 0.0011240022722631693
6168000000.0 0.0001986006973311305 0.0010932290460914373
6169000000.0 0.0007112713647074997 0.0006241127266548574
6170000000.0 0.0009474213002249599 0.00020130998746026307
6171000000.0 0.001070907455869019 -0.00015384879952762276
6172000000.0 0.0008054957143031061 -0.0005926087615080178
6173000000.0 0.0004431401612237096 -0.0007253232761286199
6174000000.0 -8.821380470180884e-05 -0.0010711938375607133
6175000000.0 -0.00040333066135644913 -0.0007476658211089671
6176000000.0 -0.0007990609738044441 -0.0005592880770564079
6177000000.0 -0.0011312654241919518 -0.000225414740270935
6178000000.0 -0.0009874067036435008 0.0003474015393294394
6179000000.0 -0.0008180508739314973 0.0006933129043318331
6180000000.0 -0.0003181035863235593 0.0009091864922083914
6181000000.0 0.00020903687982354313 0.0011757145402953029
6182000000.0 0.0006160703487694263 0.0007665730663575232
6183000000.0 0.0007331282249651849 0.0003821448190137744
6184000000.0 0.001115112565457821 -6.9317378802225e-05
6185000000.0 0.0007508689886890352 -0.00041673422674648464
6186000000.0 0.0005945787997916341 -0.0009470213553868234
6187000000.0 2.6334137146477588e-05 -0.0009728857548907399
6188000000.0 -0.00067699677310884 -0.000939497200306505
6189000000.0 -0.0007509361021220684 -0.0006258039502426982
6190000000.0 -0.0010797169525176287 -0.00015447865007445216
6191000000.0 -0.001156751299276948 0.00046240497613325715
6192000000.0 -0.0007293714443221688 0.000824363378342241
6193000000.0 -0.00014787769760005176 0.0011015329509973526
6194000000.0 0.00016666007286403328 0.001200741739012301
6195000000.0 0.0007403983036056161 0.0007080623181536794
6196000000.0 0.0009503382025286555 0.00036234752042219043
6197000000.0 0.0011581848375499249 -3.3335989428451285e-05
6198000000.0 0.0008663739426992834 -0.0007325847982428968
6199000000.0 0.0003621480136644095 -0.0009647041442804039
6200000000.0 -0.0001309957733610645 -0.0010719355195760727
6201000000.0 -0.0005928220343776047 -0.000853646663017571
6202000000.0 -0.0012231656583026052 -0.000584311899729073
6203000000.0 -0.0012428623158484697 -0.0001064090320141986
6204000000.0 -0.0010657020611688495 0.0005031248438172042
6205000000.0 -0.0007702791481278837 0.0008769432315602899
6206000000.0 -0.0003081883187405765 0.001195624121464789
6207000000.0 0.0004521144728641957 0.0011033429764211178
6208000000.0 0.0009779251413419843 0.0008295038132928312
6209000000.0 0.001210554619319737 0.00028501797351054847
6210000000.0 0.001017811824567616 -0.00021924538305029273
6211000000.0 0.0006807883619330823 -0.0008497540839016438
6212000000.0 0.000494482577778399 -0.0010912679135799408
6213000000.0 -0.00012284304830245674 -0.0011351322755217552
6214000000.0 -0.0005923073622398078 -0.0010334643302485347
6215000000.0 -0.0010707188630476594 -0.0006107777589932084
6216000000.0 -0.001246175030246377 0.00016567183774895966
6217000000.0 -0.0008989581256173551 0.0006425846950151026
6218000000.0 -0.0006029391661286354 0.0010051775025203824
6219000000.0 -4.114273906452581e-05 0.0011896901996806264
6220000000.0 0.0003214215103071183 0.000858072773553431
6221000000.0 0.0008278266177512705 0.0007582352263852954
6222000000.0 0.0010795738780871034 0.00011419173824833706
6223000000.0 0.001070184982381761 -0.0003918858419638127
6224000000.0 0.0007578739896416664 -0.0008520464180037379
6225000000.0 0.00018877068941947073 -0.0010691584320738912
6226000000.0 -0.00021022085275035352 -0.0011655145790427923
6227000000.0 -0.000779244233854115 -0.0006769364117644727
6228000000.0 -0.0011419886723160744 -0.00037623944808728993
6229000000.0 -0.0010881605558097363 0.0002565318427514285
6230000000.0 -0.0008488002931699157 0.0007622084231115878
6231000000.0 -0.0005463617271743715 0.0010970268631353974
6232000000.0 -5.5454795074183494e-05 0.0012746582506224513
6233000000.0 0.0006222750525921583 0.0011048847809433937
6234000000.0 0.0009350967593491077 0.0005196882993914187
6235000000.0 0.0011244624620303512 6.378455145750195e-05
6236000000.0 0.0008315446902997792 -0.0004726518236566335
6237000000.0 0.0007080548093654215 -0.0008265968644991517
6238000000.0 0.00028177961939945817 -0.0011349834967404604
6239000000.0 -0.00020001892698928714 -0.0010412737028673291
6240000000.0 -0.0007086638943292201 -0.0006620719213970006
6241000000.0 -0.000998248578980565 -0.0003759917162824422
6242000000.0 -0.0008888461743481457 0.00017244007904082537
6243000000.0 -0.0007263587322086096 0.0006165879894979298
6244000000.0 -0.0003979933389928192 0.0008500735275447369
6245000000.0 7.048757834127173e-05 0.001104541588574648
6246000000.0 0.0006386817549355328 0.0007440233021043241
6247000000.0 0.0008666415815241635 0.0005493119242601097
6248000000.0 0.000934862473513931 3.8897494960110635e-05
6249000000.0 0.0007808257942087948 -0.0005671795224770904
6250000000.0 0.000585123139899224 -0.0007260260754264891
6251000000.0 0.00021175395522732288 -0.0008829251164570451
6252000000.0 -0.00026230173534713686 -0.0007584622362628579
6253000000.0 -0.0006694009061902761 -0.0007539907819591463
6254000000.0 -0.0008791903965175152 -0.0002054928190773353
6255000000.0 -0.0007898719632066786 0.00013082087389193475
6256000000.0 -0.0007291911751963198 0.0006398975383490324
6257000000.0 -0.0003899366420228034 0.0008951990166679025
6258000000.0 -1.7199701005665702e-06 0.0009382572607137263
6259000000.0 0.00048299727495759726 0.0009948167717084289
6260000000.0 0.0008269826066680253 0.00033528287895023823
6261000000.0 0.0007275507086887956 8.398352656513453e-05
6262000000.0 0.0006987871020101011 -0.0002725646481849253
6263000000.0 0.0004967307904735208 -0.0008249041857197881
6264000000.0 8.740070188650861e-05 -0.0008603324531577528
6265000000.0 -0.0001656288659432903 -0.0008083126158453524
6266000000.0 -0.0006138348835520446 -0.0005117003456689417
6267000000.0 -0.0007979653310030699 -0.00035781372571364045
6268000000.0 -0.0009415098465979099 0.00024701215443201363
6269000000.0 -0.000679833407048136 0.00044688035268336535
6270000000.0 -0.00042204378405585885 0.0007255100063048303
6271000000.0 -2.6305086066713557e-05 0.0007687680190429091
6272000000.0 0.00035394763108342886 0.0006881835288368165
6273000000.0 0.0008816817426122725 0.0005832718452438712
6274000000.0 0.0008049357566051185 0.00022183082182891667
6275000000.0 0.0008628923096694052 -0.00011129776976304129
6276000000.0 0.0005901182885281742 -0.0006232019513845444
6277000000.0 0.0002575874677859247 -0.0009312813635915518
6278000000.0 1.007478545034246e-07 -0.0009868787601590157
6279000000.0 -0.0004294178797863424 -0.0007932116859592497
6280000000.0 -0.0007526864064857364 -0.0005764160305261612
6281000000.0 -0.0007750602089799941 -2.3231159502756782e-05
6282000000.0 -0.000853339268360287 0.000530033023096621
6283000000.0 -0.0004947164561599493 0.0008182203164324164
6284000000.0 -0.00018920740694738925 0.0008313035359606147
6285000000.0 0.000458705733763054 0.0009018221171572804
6286000000.0 0.0006363160209730268 0.0006920507876202464
6287000000.0 0.0009670057334005833 0.00041252493974752724
6288000000.0 0.0009154353756457567 -4.055424142279662e-05
6289000000.0 0.0006727975560352206 -0.0005386429838836193
6290000000.0 0.00038891503936611116 -0.000791695318184793
6291000000.0 -0.00012105858331779018 -0.000937134784180671
6292000000.0 -0.0004536149208433926 -0.0008883651462383568
6293000000.0 -0.0007490849820896983 -0.0006408630288206041
6294000000.0 -0.0010139326332136989 -0.0001389743702020496
6295000000.0 -0.001000493997707963 0.00040278982487507164
6296000000.0 -0.0007885773666203022 0.0007531256414949894
6297000000.0 -0.00017259648302569985 0.0010678487597033381
6298000000.0 0.00018745395937003195 0.0009709249716252089
6299000000.0 0.0006815745146013796 0.0009031877852976322
6300000000.0 0.0009192974539473653 0.0003827457840088755
6301000000.0 0.0011068424209952354 -0.00015451746003236622
6302000000.0 0.0010990488808602095 -0.0007028869586065412
6303000000.0 0.00048062545829452574 -0.0010202610865235329
6304000000.0 -5.251311813481152e-05 -0.0012881244765594602
6305000000.0 -0.0007162374095059931 -0.0010482203215360641
6306000000.0 -0.0009706516866572201 -0.0006842847797088325
6307000000.0 -0.0012434058589860797 -0.00010344237671233714
6308000000.0 -0.001098637469112873 0.0006147012463770807
6309000000.0 -0.0009265539119951427 0.001055996515788138
6310000000.0 -0.00011463085684226826 0.0013526116963475943
6311000000.0 0.000593403005041182 0.0011858583893626928
6312000000.0 0.0011635501869022846 0.0009172524441964924
6313000000.0 0.0012823906727135181 0.00020935421343892813
6314000000.0 0.001355177373625338 -0.0006051716627553105
6315000000.0 0.0010407542577013373 -0.0011018632212653756
6316000000.0 0.0003839139826595783 -0.0013377240393310785
6317000000.0 -0.00029492739122360945 -0.0013173368060961366
6318000000.0 -0.0009190940763801336 -0.0009353150380775332
6319000000.0 -0.0012750729219987988 -0.00028618567739613354
6320000000.0 -0.001321753254160285 0.0002696218143682927
6321000000.0 -0.0010980316437780857 0.001005405792966485
6322000000.0 -0.0005115258391015232 0.0011975821107625961
6323000000.0 0.00019208744924981147 0.001389738405123353
6324000000.0 0.0007454949081875384 0.0011148499324917793
6325000000.0 0.0012926800409331918 0.0006236041663214564
6326000000.0 0.001288921688683331 -0.00019941497885156423
6327000000.0 0.001156490994617343 -0.0007054347661323845
6328000000.0 0.0006114877760410309 -0.001086799893528223
6329000000.0 7.283098966581747e-05 -0.0012145291548222303
6330000000.0 -0.0005216370336711407 -0.0010359351290389895
6331000000.0 -0.0009595559677109122 -0.0006294955383054912
6332000000.0 -0.0011717372108250856 -7.898126204963773e-05
6333000000.0 -0.0011046170257031918 0.0004779243317898363
6334000000.0 -0.0008404492982663214 0.0008628019131720066
6335000000.0 -0.000300823274301365 0.0011277655139565468
6336000000.0 0.0003792316128965467 0.0011147696059197187
6337000000.0 0.0008077329257503152 0.0008923475979827344
6338000000.0 0.0011570965871214867 0.0003412968071643263
6339000000.0 0.001196938450448215 -0.0001303553581237793
6340000000.0 0.0009441160946153104 -0.0006548556266352534
6341000000.0 0.0005259319441393018 -0.0009691447485238314
6342000000.0 3.6114164686296135e-05 -0.0010479483753442764
6343000000.0 -0.000697464041877538 -0.0009228662820532918
6344000000.0 -0.0009249987197108567 -0.0005905613652430475
6345000000.0 -0.0011888205772265792 -7.459192420355976e-05
6346000000.0 -0.0009439706918783486 0.00041511148447170854
6347000000.0 -0.0006882761954329908 0.0007961267838254571
6348000000.0 -0.00020292508997954428 0.0011092103086411953
6349000000.0 0.00024426449090242386 0.000937612378038466
6350000000.0 0.0007181789260357618 0.000803207338321954
6351000000.0 0.0010563296964392066 0.00030107496422715485
6352000000.0 0.001031291438266635 -0.00017698509327601641
6353000000.0 0.0007807921501807868 -0.0005276760784909129
6354000000.0 0.000477919151308015 -0.001017305999994278
6355000000.0 -9.530365059617907e-05 -0.0010722478618845344
6356000000.0 -0.0004935374017804861 -0.0008588318014517426
6357000000.0 -0.0007826403016224504 -0.0005099845584481955
6358000000.0 -0.0010078666964545846 -3.591041604522616e-05
6359000000.0 -0.0009096970316022635 0.00039371976163238287
6360000000.0 -0.0006404996383935213 0.0007768716313876212
6361000000.0 -0.00016498699551448226 0.0010346993803977966
6362000000.0 0.0002791520382743329 0.0009594475268386304
6363000000.0 0.0007254075026139617 0.0007213891367428005
6364000000.0 0.0009510758682154119 0.00040803247247822583
6365000000.0 0.0009565715445205569 -0.0001421663473593071
6366000000.0 0.0008010271703824401 -0.0005339309573173523
6367000000.0 0.00039969818317331374 -0.0008996875840239227
6368000000.0 -2.8178816137369722e-05 -0.0010368027724325657
6369000000.0 -0.0004670710186474025 -0.000954825954977423
6370000000.0 -0.000802611350081861 -0.0005359516944736242
6371000000.0 -0.0009758317610248923 -2.0494620912359096e-05
6372000000.0 -0.0009996035369113088 0.0003815532836597413
6373000000.0 -0.0006481419550254941 0.0008224682533182204
6374000000.0 -0.0002215921995230019 0.001081907656043768
6375000000.0 0.00014961780107114464 0.0009418501285836101
6376000000.0 0.0006780640687793493 0.0007015483570285141
6377000000.0 0.0009826415916904807 0.0002789155696518719
6378000000.0 0.0010337202111259103 -0.00016251241322606802
6379000000.0 0.0008080551633611321 -0.0005203852197155356
6380000000.0 0.0004965701373293996 -0.0009250450530089438
6381000000.0 -3.561648918548599e-05 -0.0009963784832507372
6382000000.0 -0.0005555124953389168 -0.000924272055272013
6383000000.0 -0.0008719926117919385 -0.0004925918765366077
6384000000.0 -0.0009656436741352081 -0.00010657407256076112
6385000000.0 -0.0008687649387866259 0.0003227958222851157
6386000000.0 -0.0006188545958139002 0.0008249323000200093
6387000000.0 -0.0001864948426373303 0.0009390228078700602
6388000000.0 0.00027962561580352485 0.0009003019076772034
6389000000.0 0.0007138099754229188 0.0007656018133275211
6390000000.0 0.000993872294202447 0.0003353850916028023
6391000000.0 0.0009845343884080648 -7.649268809473142e-05
6392000000.0 0.0008636055863462389 -0.0006536064320243895
6393000000.0 0.0004171632172074169 -0.0008871979080140591
6394000000.0 2.420870259811636e-05 -0.001030659070238471
6395000000.0 -0.0005263389903120697 -0.0009361108532175422
6396000000.0 -0.0008805711404420435 -0.0005104559240862727
6397000000.0 -0.0011086470913141966 -3.86020474252291e-06
6398000000.0 -0.0008481284603476524 0.00044131840695627034
6399000000.0 -0.0006612658617086709 0.0007737393607385457
6400000000.0 -0.0002797921479213983 0.001094921724870801
6401000000.0 0.0002545812167227268 0.0009783223504200578
6402000000.0 0.0007390632526949048 0.0008145913598127663
6403000000.0 0.001019157120026648 0.0003112001286353916
6404000000.0 0.0011503035202622414 -0.0002497708483133465
6405000000.0 0.0008513723150826991 -0.0006929775117896497
6406000000.0 0.0004934528260491788 -0.0010165447602048516
6407000000.0 -9.31679896893911e-05 -0.0011256966972723603
6408000000.0 -0.0007056575850583613 -0.000952314876485616
6409000000.0 -0.0010905179660767317 -0.0005965172895230353
6410000000.0 -0.0010824004421010613 5.435684943222441e-05
6411000000.0 -0.0010423243511468172 0.0005172583041712642
6412000000.0 -0.0006532985134981573 0.0009684528922662139
6413000000.0 -3.979256143793464e-05 0.001260660239495337
6414000000.0 0.0006134122377261519 0.0010451750131323934
6415000000.0 0.0009368506725877523 0.000630944618023932
6416000000.0 0.0012052954407408834 -6.783291610190645e-05
6417000000.0 0.0010395499411970377 -0.0005489365430548787
6418000000.0 0.0007032909197732806 -0.0009968987433239818
6419000000.0 0.0002109703200403601 -0.0012338159140199423
6420000000.0 -0.00044820253970101476 -0.0011786107206717134
6421000000.0 -0.0009386189631186426 -0.0007598594529554248
6422000000.0 -0.0011428181314840913 -0.00020782840147148818
6423000000.0 -0.0010514449095353484 0.0004850236582569778
6424000000.0 -0.0008211499662138522 0.0008022377151064575
6425000000.0 -0.0002814177132677287 0.0009896229021251202
6426000000.0 0.0002739548799581826 0.0010503545636311173
6427000000.0 0.0007469953270629048 0.0007557996432296932
6428000000.0 0.00102144421543926 0.0003335148503538221
6429000000.0 0.0009913318790495396 -0.0001772893883753568
6430000000.0 0.000746231060475111 -0.0005958841065876186
6431000000.0 0.00042709719855338335 -0.0008253960404545069
6432000000.0 1.0964876310026739e-05 -0.0009219907224178314
6433000000.0 -0.0005733856232836843 -0.0008235460263676941
6434000000.0 -0.0007725245668552816 -0.00048580075963400304
6435000000.0 -0.0009996260050684214 -4.759901639772579e-05
6436000000.0 -0.0007401912589557469 0.0003722737019415945
6437000000.0 -0.0005474999197758734 0.0006422042497433722
6438000000.0 -0.0001696224935585633 0.0009029873763211071
6439000000.0 0.00030835202778689563 0.0008337752660736442
6440000000.0 0.0006339105893857777 0.0006046861526556313
6441000000.0 0.0008110869093798101 0.00018750612798612565
6442000000.0 0.0008021848043426871 -0.00018285642727278173
6443000000.0 0.0006277773063629866 -0.00044494130997918546
6444000000.0 0.0003537722222972661 -0.0006870379438623786
6445000000.0 -9.349110769107938e-05 -0.0008084472501650453
6446000000.0 -0.0004711751826107502 -0.0006594794685952365
6447000000.0 -0.0006176261813379824 -0.00043728528544306755
6448000000.0 -0.0008292729617096484 -2.5125906176981516e-05
6449000000.0 -0.0007525189430452883 0.00027952567324973643
6450000000.0 -0.00046955369180068374 0.0005773719167336822
6451000000.0 -0.00015775093925185502 0.0007476585451513529
6452000000.0 0.00011282529158052057 0.0007393501000478864
6453000000.0 0.0005357898189686239 0.0005814238684251904
6454000000.0 0.000722327851690352 0.00030395304202102125
6455000000.0 0.0007976643391884863 -0.00013940312783233821
6456000000.0 0.0005533199291676283 -0.0004551074525807053
6457000000.0 0.00044291309313848615 -0.0006295271450653672
6458000000.0 4.5652566882381507e-07 -0.000675516901537776
6459000000.0 -0.0002675406285561621 -0.0005980869755148888
6460000000.0 -0.0005499784601852298 -0.0004348982765804976
6461000000.0 -0.0007455675513483584 -0.00018147607624996454
6462000000.0 -0.0006197533803060651 0.00026083033299073577
6463000000.0 -0.00048599750152789056 0.00046580436173826456
6464000000.0 -0.0002462905249558389 0.0005824232357554138
6465000000.0 0.00012583108036778867 0.0006320864195004106
6466000000.0 0.00046084870700724423 0.0005207558861002326
6467000000.0 0.0006978246965445578 0.0002971852954942733
6468000000.0 0.0006206599646247923 -4.058539343532175e-05
6469000000.0 0.0006114093121141195 -0.00041001688805408776
6470000000.0 0.0004034079029224813 -0.0005244038184173405
6471000000.0 5.7377401390112936e-05 -0.0007043437217362225
6472000000.0 -0.00030140855233184993 -0.0005895942449569702
6473000000.0 -0.0004887231043539941 -0.00046926617505960166
6474000000.0 -0.0006993305287323892 -0.00010892602585954592
6475000000.0 -0.0006157372263260186 0.00019520502246450633
6476000000.0 -0.00044209888437762856 0.0005123188020661473
6477000000.0 -0.0002484979631844908 0.0007336452836170793
6478000000.0 0.00010474137525307015 0.0007681950810365379
6479000000.0 0.0004883843939751387 0.0005992362275719643
6480000000.0 0.0006406476022675633 0.0002569442440290004
6481000000.0 0.0007259031408466399 1.9157096176058985e-05
6482000000.0 0.0006651707226410508 -0.0002855982747860253
6483000000.0 0.00036548334173858166 -0.0006155812880024314
6484000000.0 8.670839451951906e-05 -0.0007771956152282655
6485000000.0 -0.00034365346073172987 -0.0006772301276214421
6486000000.0 -0.0005405416013672948 -0.00044744135811924934
6487000000.0 -0.0007434978615492582 -6.974171265028417e-05
6488000000.0 -0.0006340419640764594 0.00024566755746491253
6489000000.0 -0.0004865828377660364 0.0005510243936441839
6490000000.0 -0.00021099655714351684 0.0006742979167029262
6491000000.0 0.00015503744361922145 0.0007591820321977139
6492000000.0 0.00045944625162519515 0.0006372389034368098
6493000000.0 0.0006128174136392772 0.00031429820228368044
6494000000.0 0.0007413689745590091 -2.8930413463967852e-05
6495000000.0 0.0006457605632022023 -0.00040782950236462057
6496000000.0 0.00039467174792662263 -0.0006159110344015062
6497000000.0 9.245653927791864e-05 -0.0007592717884108424
6498000000.0 -0.0002971787180285901 -0.0006955380085855722
6499000000.0 -0.0005973854567855597 -0.0004947631387040019
6500000000.0 -0.0008009397424757481 -0.00011957722745137289
6501000000.0 -0.0007882236386649311 0.00016670249169692397
6502000000.0 -0.000596912985201925 0.00049152213614434
6503000000.0 -0.0003125369839835912 0.000682701007463038
6504000000.0 3.542865306371823e-05 0.0007896536262705922
6505000000.0 0.00045938469702377915 0.0006787035963498056
6506000000.0 0.0006842417060397565 0.0004133104521315545
6507000000.0 0.0008998853154480457 -4.38715323980432e-06
6508000000.0 0.0007439093315042555 -0.00042710223351605237
6509000000.0 0.0004216310626361519 -0.0007795048295520246
6510000000.0 3.1733936339151114e-05 -0.0009135471191257238
6511000000.0 -0.0003301747783552855 -0.000780602334998548
6512000000.0 -0.000675136165227741 -0.0006202583317644894
6513000000.0 -0.0008958510588854551 -0.00014024249685462564
6514000000.0 -0.0009005022002384067 0.00033384040580131114
6515000000.0 -0.0006774914800189435 0.0006769191822968423
6516000000.0 -0.0002699208853300661 0.0009143523056991398
6517000000.0 8.427281136391684e-05 0.0009747037547640502
6518000000.0 0.0005342360818758607 0.0007710537756793201
6519000000.0 0.0009175224113278091 0.0004196649242658168
6520000000.0 0.001016181311570108 -0.00010586006101220846
6521000000.0 0.0008704226929694414 -0.0005594281828962266
6522000000.0 0.0004580751701723784 -0.0009366326848976314
6523000000.0 2.8309988920227624e-05 -0.00107625313103199
6524000000.0 -0.000609896844252944 -0.0010334029793739319
6525000000.0 -0.0008950199699029326 -0.000686564773786813
6526000000.0 -0.001169695402495563 -0.00014401244698092341
6527000000.0 -0.001046088058501482 0.0005346066318452358
6528000000.0 -0.0006317408406175673 0.0010022390633821487
6529000000.0 -7.974100299179554e-05 0.0011535730445757508
6530000000.0 0.0005066640442237258 0.0010656641097739339
6531000000.0 0.0010704033775255084 0.0007228312315419316
6532000000.0 0.0013109215069562197 0.00013091738219372928
6533000000.0 0.0012115463614463806 -0.000478675909107551
6534000000.0 0.0007106892880983651 -0.0010554289910942316
6535000000.0 0.00021168058447074145 -0.0012820751871913671
6536000000.0 -0.0005053210770711303 -0.0011588651686906815
6537000000.0 -0.000998323899693787 -0.0007288929773494601
6538000000.0 -0.0011745846131816506 -8.027311559999362e-05
6539000000.0 -0.001148295239545405 0.00036028798785991967
6540000000.0 -0.0006778489332646132 0.0009294341434724629
6541000000.0 -0.00019522117509040982 0.001097793341614306
6542000000.0 0.00031732377829030156 0.0010563934920355678
6543000000.0 0.0007524112588725984 0.0007940182113088667
6544000000.0 0.0010692186187952757 0.00021905639732722193
6545000000.0 0.0010344540933147073 -0.0001819146709749475
6546000000.0 0.0007971226004883647 -0.0006872215890325606
6547000000.0 0.00036883115535601974 -0.0009733938495628536
6548000000.0 -9.034857066581026e-05 -0.0009990991093218327
6549000000.0 -0.000522572488989681 -0.0008257178706116974
6550000000.0 -0.0008678556769154966 -0.0003450307121966034
6551000000.0 -0.00097698497120291 2.9407905458356254e-05
6552000000.0 -0.0008866243879310787 0.00044407989480532706
6553000000.0 -0.0005006169667467475 0.000721096817869693
6554000000.0 -0.00015844410518184304 0.0009248842834495008
6555000000.0 0.0003709223819896579 0.0008191725937649608
6556000000.0 0.0007110874284990132 0.0005413147155195475
6557000000.0 0.0008970178314484656 0.00019951188005506992
6558000000.0 0.000864235102199018 -0.00025287215248681605
6559000000.0 0.0006182913784869015 -0.0006029217620380223
6560000000.0 0.00021011068020015955 -0.000847647141199559
6561000000.0 -9.804980072658509e-05 -0.000773642968852073
6562000000.0 -0.0005600371514447033 -0.0006912160897627473
6563000000.0 -0.0007415372529067099 -0.0003960242902394384
6564000000.0 -0.0008368457201868296 3.6660849218606018e-06
6565000000.0 -0.0007154339109547436 0.00040535678272135556
6566000000.0 -0.0005095089436508715 0.0007427575765177608
6567000000.0 -3.6606696085073054e-05 0.0009032071102410555
6568000000.0 0.00026337505551055074 0.0008253482519648969
6569000000.0 0.0006646291585639119 0.0006163737270981073
6570000000.0 0.0007148616132326424 0.0002616980636958033
6571000000.0 0.0008139605633914471 -0.0002782157389447093
6572000000.0 0.0007161456160247326 -0.0006049286457709968
6573000000.0 0.00026722863549366593 -0.0007739708526059985
6574000000.0 -2.9237875423859805e-05 -0.0008972037467174232
6575000000.0 -0.0005169699434190989 -0.0007057400071062148
6576000000.0 -0.0007625386933796108 -0.0004029980627819896
6577000000.0 -0.0008030275348573923 -1.893532316898927e-05
6578000000.0 -0.0007878645556047559 0.00043526673107407987
6579000000.0 -0.0005402748938649893 0.0006851708749309182
6580000000.0 -4.270589124644175e-05 0.0008535796659998596
6581000000.0 0.00042478780960664153 0.0008869057055562735
6582000000.0 0.0006007534102536738 0.0005754089215770364
6583000000.0 0.0009643090888857841 0.000175644745468162
6584000000.0 0.0009243319509550929 -0.0002491259656380862
6585000000.0 0.0006555037689395249 -0.0007682591094635427
6586000000.0 0.00030501032597385347 -0.0009689303115010262
6587000000.0 -0.00022288353648036718 -0.0009168348624370992
6588000000.0 -0.00072670221561566 -0.0007206908776424825
6589000000.0 -0.0009454150567762554 -0.00034568514092825353
6590000000.0 -0.0009665865800343454 0.00015443832671735436
6591000000.0 -0.0008317075553350151 0.0006136744632385671
6592000000.0 -0.00035662579466588795 0.0009883155580610037
6593000000.0 9.23455590964295e-05 0.0008832891471683979
6594000000.0 0.0005631077219732106 0.0008181356242857873
6595000000.0 0.0008934787474572659 0.00044146672007627785
6596000000.0 0.0009905435144901276 6.033558292983798e-06
6597000000.0 0.0008185994229279459 -0.00041216344106942415
6598000000.0 0.0005077983369119465 -0.0007498154882341623
6599000000.0 2.635180135257542e-05 -0.0010241996496915817
6600000000.0 -0.0004614422796294093 -0.0009391960920765996
6601000000.0 -0.0007417950546368957 -0.00046728007146157324
6602000000.0 -0.0009257538476958871 -6.0653524997178465e-05
6603000000.0 -0.0008998115663416684 0.0002234288986073807
6604000000.0 -0.0006430561188608408 0.0005684693460352719
6605000000.0 -0.0002258588938275352 0.0008663114276714623
6606000000.0 8.59259016579017e-05 0.0008853313629515469
6607000000.0 0.000622612307779491 0.0006425398751161993
6608000000.0 0.0008344952366314828 0.0002942666760645807
6609000000.0 0.000905117834918201 -0.00010667257447494194
6610000000.0 0.0006946275825612247 -0.00039976491825655103
6611000000.0 0.0004189973697066307 -0.0007176679209806025
6612000000.0 2.946155291283503e-06 -0.0008676080033183098
6613000000.0 -0.0004578953958116472 -0.0008586862240917981
6614000000.0 -0.0007693314109928906 -0.0005141320871189237
6615000000.0 -0.0009067741339094937 -7.811195973772556e-05
6616000000.0 -0.0008233910193666816 0.0003035366244148463
6617000000.0 -0.0005508241010829806 0.0006102565675973892
6618000000.0 -0.0003402227011974901 0.0008627097122371197
6619000000.0 0.00010823133197845891 0.0009352492052130401
6620000000.0 0.0005785785033367574 0.0006759427487850189
6621000000.0 0.0007801298052072525 0.00038427032995969057
6622000000.0 0.0009157867170870304 -2.8155962354503572e-05
6623000000.0 0.0007357122376561165 -0.0005342244985513389
6624000000.0 0.0004319148720242083 -0.0008927489398047328
6625000000.0 2.139344815077493e-06 -0.0008529538754373789
6626000000.0 -0.00038608882459811866 -0.0008086537709459662
6627000000.0 -0.0008455527713522315 -0.0005554597591981292
6628000000.0 -0.0009418262052349746 -0.00010653321805875748
6629000000.0 -0.0008055256912484765 0.0004712944501079619
6630000000.0 -0.0006286473944783211 0.0007975650951266289
6631000000.0 -0.00010605273564578965 0.0009171842248179018
6632000000.0 0.00025000094319693744 0.0009466802002862096
6633000000.0 0.0007558068027719855 0.0007552295573987067
6634000000.0 0.0009950825478881598 0.0002999065036419779
6635000000.0 0.0009242400410585105 -0.00023409949790220708
6636000000.0 0.0006758869858458638 -0.0006643570377491415
6637000000.0 0.00030749724828638136 -0.0009619133779779077
6638000000.0 -0.0001960791414603591 -0.0009913669200614095
6639000000.0 -0.0006366564193740487 -0.0007628753664903343
6640000000.0 -0.000873667886480689 -0.0003642667434178293
6641000000.0 -0.0011032610200345516 0.000171034291270189
6642000000.0 -0.0008482826524414122 0.0006718882941640913
6643000000.0 -0.0002649180532898754 0.0009047249332070351
6644000000.0 8.348109986400232e-05 0.0009361424017697573
6645000000.0 0.000523051421623677 0.0008459758828394115
6646000000.0 0.0008583483286201954 0.00043479600572027266
6647000000.0 0.0008120547863654792 -2.1578844098257832e-05
6648000000.0 0.0007174077327363193 -0.0004129731678403914
6649000000.0 0.0005218945443630219 -0.0007749671349301934
6650000000.0 0.00014584820019081235 -0.0008830915321595967
6651000000.0 -0.00040370121132582426 -0.0007465629023499787
6652000000.0 -0.0006688409484922886 -0.0006278388318605721
6653000000.0 -0.0008689210517331958 -0.0001314031396759674
6654000000.0 -0.0008472518529742956 0.00028525994275696576
6655000000.0 -0.0004881149507127702 0.0005368302809074521
6656000000.0 -0.000315748417051509 0.0008091708295978606
6657000000.0 0.00010190267494181171 0.0007410125690512359
6658000000.0 0.0004526740522123873 0.0005572593654505908
6659000000.0 0.0006119291065260768 0.00028269807808101177
6660000000.0 0.0007647646707482636 1.2885157048003748e-05
6661000000.0 0.000639250036329031 -0.0004190945182926953
6662000000.0 0.0004794321139343083 -0.0006169936968944967
6663000000.0 0.00012604733637999743 -0.000793610408436507
6664000000.0 -0.00031880513415671885 -0.0006050767842680216
6665000000.0 -0.0005024670390412211 -0.00033152796095237136
6666000000.0 -0.0007344036712311208 -0.00020937218505423516
6667000000.0 -0.0006253074971027672 0.000194211708731018
6668000000.0 -0.0004215414810460061 0.00046272046165540814
6669000000.0 -0.0003101300972048193 0.0007352104294113815
6670000000.0 0.00011261013423791155 0.0007175331120379269
6671000000.0 0.0003907810605596751 0.0005571854999288917
6672000000.0 0.000691484659910202 0.0004028752155136317
6673000000.0 0.0007053166045807302 0.00015568549861200154
6674000000.0 0.0006324787973426282 -0.0003765106957871467
6675000000.0 0.00041918078204616904 -0.0005214494303800166
6676000000.0 0.00020713277626782656 -0.000756031135097146
6677000000.0 -0.00021248664415907115 -0.000710904598236084
6678000000.0 -0.000518758490215987 -0.0006400666898116469
6679000000.0 -0.0006489398656412959 -0.0002921556879300624
6680000000.0 -0.0008141525904648006 4.173788329353556e-05
6681000000.0 -0.0006627859547734261 0.0005162293673492968
6682000000.0 -0.0002851150347851217 0.0006621270440518856
6683000000.0 6.4251602452714e-05 0.0007273147348314524
6684000000.0 0.0003871978842653334 0.000717225659172982
6685000000.0 0.0006747458246536553 0.0004910126444883645
6686000000.0 0.0008521094569005072 4.8032910854090005e-05
6687000000.0 0.0008028739830479026 -0.0002999402640853077
6688000000.0 0.0004250688070897013 -0.000687186315190047
6689000000.0 0.00016984003013931215 -0.0007904754020273685
6690000000.0 -0.0002371703740209341 -0.0008340580388903618
6691000000.0 -0.0006669111317023635 -0.0006416180403903127
6692000000.0 -0.0008195615955628455 -0.0002314086741534993
6693000000.0 -0.0009535055141896009 0.00027082778979092836
6694000000.0 -0.0007919851341284811 0.0005873357877135277
6695000000.0 -0.0005021648830734193 0.0008450531167909503
6696000000.0 6.926770583959296e-05 0.0008784867241047323
6697000000.0 0.0005474741337820888 0.0009495868580415845
6698000000.0 0.000955800642259419 0.0004473149892874062
6699000000.0 0.0010573354084044695 -0.00011390904546715319
6700000000.0 0.000855681428220123 -0.0005877033690921962
6701000000.0 0.000616443227045238 -0.0009329068707302213
6702000000.0 -4.45022524218075e-05 -0.0010642794659361243
6703000000.0 -0.0005359895876608789 -0.0009528957889415324
6704000000.0 -0.0009205896058119833 -0.0006688420544378459
6705000000.0 -0.0009862900478765368 -7.650547195225954e-05
6706000000.0 -0.0009645252721384168 0.00042159968870691955
6707000000.0 -0.0006927259964868426 0.0009007542976178229
6708000000.0 -7.297134288819507e-05 0.0010874340077862144
6709000000.0 0.0005138549022376537 0.001022322103381157
6710000000.0 0.0007721073343418539 0.0007812422118149698
6711000000.0 0.0010126731358468533 0.0002497175591997802
6712000000.0 0.0010115201584994793 -0.0004786872013937682
6713000000.0 0.0006515996064990759 -0.0008164044702425599
6714000000.0 0.00015424568846356124 -0.0010731593938544393
6715000000.0 -0.00024489694624207914 -0.0010948701528832316
6716000000.0 -0.0007418407476507127 -0.0008592020603828132
6717000000.0 -0.0010173553600907326 -0.00028108034166507423
6718000000.0 -0.0010102781234309077 0.0001253171794814989
6719000000.0 -0.000791929429396987 0.0006971367984078825
6720000000.0 -0.0005209077498875558 0.0010040473425760865
6721000000.0 0.00012429732305463403 0.0010077158221974969
6722000000.0 0.0005074695218354464 0.0008135319221764803
6723000000.0 0.0009339212556369603 0.0005213784170337021
6724000000.0 0.0010500841308385134 -8.042637637117878e-05
6725000000.0 0.0008679364109411836 -0.0005746849928982556
6726000000.0 0.00039770829607732594 -0.0008979254635050893
6727000000.0 1.0219883733952884e-05 -0.0009142226772382855
6728000000.0 -0.000399033073335886 -0.0008440259844064713
6729000000.0 -0.0008167980122379959 -0.00047705057659186423
6730000000.0 -0.001000024494715035 -7.50552280806005e-05
6731000000.0 -0.0008964046719484031 0.0003758625825867057
6732000000.0 -0.000565011112485081 0.0007078933413140476
6733000000.0 -7.22870299796341e-06 0.0010692770592868328
6734000000.0 0.00036655794247053564 0.0009038573480211198
6735000000.0 0.0006898234132677317 0.0006508368533104658
6736000000.0 0.0008903851849026978 9.883943857857957e-05
6737000000.0 0.0009421097347512841 -0.0003593178407754749
6738000000.0 0.0008409140282310545 -0.0006949635571800172
6739000000.0 0.0002147624036297202 -0.0009382874704897404
6740000000.0 -0.00028677177033387125 -0.0009109532693400979
6741000000.0 -0.0007700491696596146 -0.0006165836821310222
6742000000.0 -0.0009105525678023696 -0.0002364715182920918
6743000000.0 -0.0008586706826463342 0.00022419003653340042
6744000000.0 -0.0005520323757082224 0.000658770848531276
6745000000.0 -0.00028872795519419014 0.0008439404773525894
6746000000.0 0.00013039918849244714 0.0007548192515969276
6747000000.0 0.00048821914242580533 0.0006981129408814013
6748000000.0 0.0007311179069802165 0.00035249037318862975
6749000000.0 0.0007709746132604778 -0.0001456213358324021
6750000000.0 0.0005677154404111207 -0.0005140293505974114
6751000000.0 0.00025603632093407214 -0.0007386176730506122
6752000000.0 -0.00012931821402162313 -0.0008150581852532923
6753000000.0 -0.00032210530480369925 -0.0005407657590694726
6754000000.0 -0.0006967702647671103 -0.0003356148081365973
6755000000.0 -0.0006174745503813028 -3.832198854070157e-05
6756000000.0 -0.0006956549477763474 0.0003098220331594348
6757000000.0 -0.00037962893838994205 0.0006289728335104883
6758000000.0 -8.406947745243087e-05 0.0007456056773662567
6759000000.0 0.00012094202247681096 0.0006095157586969435
6760000000.0 0.0005114933010190725 0.00033113002427853644
6761000000.0 0.0006522416952066123 0.00021843241120222956
6762000000.0 0.0004995303461328149 -5.4186217312235385e-05
6763000000.0 0.0003995406732428819 -0.00022982987866271287
6764000000.0 0.00016975770995486528 -0.000616088742390275
6765000000.0 -2.5902845663949847e-05 -0.000611951865721494
6766000000.0 -0.00036512649967335165 -0.0005280246259644628
6767000000.0 -0.0003748330054804683 -0.00036053042276762426
6768000000.0 -0.0004239102709107101 -0.00010090095747727901
6769000000.0 -0.0005445723072625697 0.00010022149217547849
6770000000.0 -0.0002739453921094537 0.000435770460171625
6771000000.0 -0.00017851966549642384 0.0005332473083399236
6772000000.0 9.96062663034536e-05 0.0005952680367045105
6773000000.0 0.00029992361669428647 0.00040468128281645477
6774000000.0 0.0003751626063603908 0.0002878525119740516
6775000000.0 0.0005295430892147124 0.0001227715256391093
6776000000.0 0.0005707406089641154 -0.00027545684133656323
6777000000.0 0.00015213472943287343 -0.0004181002441328019
6778000000.0 -2.6641944714356214e-05 -0.0005199558800086379
6779000000.0 -0.00013311656948644668 -0.0003822072467301041
6780000000.0 -0.00032510756864212453 -0.00045680609764531255
6781000000.0 -0.000618662394117564 -7.466202805517241e-05
6782000000.0 -0.0005184817709960043 0.00016303748998325318
6783000000.0 -0.0003935126878786832 0.00041599178803153336
6784000000.0 -0.0002276984159834683 0.00037619899376295507
6785000000.0 1.2103301742172334e-05 0.00047123199328780174
6786000000.0 0.00031469171517528594 0.0004923137603327632
6787000000.0 0.0004954219912178814 0.0003831775684375316
6788000000.0 0.0004944868269376457 -4.164734127698466e-05
6789000000.0 0.0005253044073469937 -0.00023752932611387223
6790000000.0 0.00032023893436416984 -0.0004199766262900084
6791000000.0 0.0002043220738414675 -0.0005576976691372693
6792000000.0 -0.00012633822916541249 -0.0004361232277005911
6793000000.0 -0.0003146812377963215 -0.00042335482430644333
6794000000.0 -0.0005625675548799336 -0.0003379952104296535
6795000000.0 -0.0005147787742316723 -9.79370543063851e-06
6796000000.0 -0.0004341964959166944 0.00025474553694948554
6797000000.0 -0.00017826251860242337 0.0007309755892492831
6798000000.0 0.00010140021186089143 0.0005578264826908708
6799000000.0 0.0003147364768665284 0.0005825100815854967
6800000000.0 0.0004120364901609719 0.000372229638742283
6801000000.0 0.0006064922199584544 5.816238513034477e-07
6802000000.0 0.0006885618786327541 -0.00029458082281053066
6803000000.0 0.0003997022577095777 -0.0004593320481944829
6804000000.0 0.00011458719382062554 -0.0006970998365432024
6805000000.0 -0.00028529809787869453 -0.000635717180557549
6806000000.0 -0.000487702083773911 -0.0005622351891361177
6807000000.0 -0.0006535518914461136 -4.2202747863484547e-05
6808000000.0 -0.0006391734350472689 0.00030516416882164776
6809000000.0 -0.0004064331587869674 0.00044781321776099503
6810000000.0 -0.00023666649940423667 0.0006337980157695711
6811000000.0 0.00015788059681653976 0.0007296351250261068
6812000000.0 0.0005238871672190726 0.0004557503270916641
6813000000.0 0.0007723179296590388 0.00024584188940934837
6814000000.0 0.0008176361443474889 -0.0002091157657559961
6815000000.0 0.0005056732916273177 -0.0005086649907752872
6816000000.0 0.000332558061927557 -0.0007712235092185438
6817000000.0 7.384383934549987e-05 -0.0006470579537563026
6818000000.0 -0.0004796495195478201 -0.0005922312848269939
6819000000.0 -0.0007208291790448129 -0.000334220560034737
6820000000.0 -0.0007565505802631378 -2.2357462512445636e-05
6821000000.0 -0.0007041318458504975 0.00027254567248746753
6822000000.0 -0.000459493778180331 0.0005332370055839419
6823000000.0 -0.00012881237489636987 0.0007705528405494988
6824000000.0 0.0003957384906243533 0.0006793489446863532
6825000000.0 0.0005782468942925334 0.0003054947592318058
6826000000.0 0.0008612530655227602 0.0001554491464048624
6827000000.0 0.0007336135604418814 -0.00032058320357464254
6828000000.0 0.0005809119320474565 -0.000637285877019167
6829000000.0 0.00018244178500026464 -0.0008482339908368886
6830000000.0 -0.0001360843307338655 -0.0006381109124049544
6831000000.0 -0.00038897988270036876 -0.00045889688772149384
6832000000.0 -0.0008427537395618856 -0.00024363015836570412
6833000000.0 -0.0007846551015973091 0.00016604643315076828
6834000000.0 -0.0006102718180045485 0.000522684829775244
6835000000.0 -0.00030066308681853116 0.0007437205640599132
6836000000.0 4.630339390132576e-05 0.000795696978457272
6837000000.0 0.0003034252149518579 0.0007010357803665102
6838000000.0 0.0007225279114209116 0.000507969583850354
6839000000.0 0.0008179011638276279 -1.4036035281606019e-05
6840000000.0 0.000780467176809907 -0.0005563120939768851
6841000000.0 0.00042249751277267933 -0.0007245840970426798
6842000000.0 0.00011348089901730418 -0.000699527794495225
6843000000.0 -0.0005041348631493747 -0.0007230165065266192
6844000000.0 -0.0008598134154453874 -0.0006125321961008012
6845000000.0 -0.0010001157643273473 -0.00019675678049679846
6846000000.0 -0.0008870101883076131 0.0002342618245165795
6847000000.0 -0.0006921271560713649 0.000664629100356251
6848000000.0 -1.5013047232059762e-05 0.0009063790203072131
6849000000.0 0.00025548410485498607 0.000939811987336725
6850000000.0 0.0006316793151199818 0.0005210007657296956
6851000000.0 0.0011377035407349467 0.00025420018937438726
6852000000.0 0.0009752442711032927 -0.0002936565433628857
6853000000.0 0.0007797960424795747 -0.0007371788378804922
6854000000.0 0.0003724456182681024 -0.0009237746708095074
6855000000.0 -0.00019998184870928526 -0.0008351017604582012
6856000000.0 -0.0007918904884718359 -0.0007546318811364472
6857000000.0 -0.0010162603575736284 -0.0002781186194624752
6858000000.0 -0.000995736219920218 0.0001034464075928554
6859000000.0 -0.0008216571295633912 0.0005833401810377836
6860000000.0 -0.00028417762950994074 0.000941781559959054
6861000000.0 0.00011994683154625818 0.0010099480859935284
6862000000.0 0.0006348061724565923 0.0007994062616489828
6863000000.0 0.0009254593169316649 0.00023496501671615988
6864000000.0 0.0008895808714441955 -0.00014020870730746537
6865000000.0 0.0007642217678949237 -0.0006345925503410399
6866000000.0 0.0003151634882669896 -0.0010186085710301995
6867000000.0 -0.00017977652896661311 -0.0011468167649582028
6868000000.0 -0.0005624357727356255 -0.0008168521453626454
6869000000.0 -0.000681972480379045 -0.00026629213243722916
6870000000.0 -0.0008389888680540025 -9.616406168788671e-05
6871000000.0 -0.000753937812987715 0.0005006050923839211
6872000000.0 -0.00037468309164978564 0.0007371888495981693
6873000000.0 -8.605574066677946e-07 0.0009757325169630349
6874000000.0 0.00029771914705634117 0.000615341414231807
6875000000.0 0.0005338767659850419 0.0004107378772459924
6876000000.0 0.0007719707791693509 -3.0213932404876687e-06
6877000000.0 0.0007220935658551753 -0.00013987843703944236
6878000000.0 0.0005417926586233079 -0.000527114316355437
6879000000.0 0.00025065409136004746 -0.0007660866831429303
6880000000.0 -0.0001399802858941257 -0.0008720904588699341
6881000000.0 -0.0005528578767552972 -0.0005458962987177074
6882000000.0 -0.0005323031218722463 -0.0002990425273310393
6883000000.0 -0.000728492857888341 0.00019538654305506498
6884000000.0 -0.0006905655027367175 0.0005162919987924397
6885000000.0 -0.0002645585627760738 0.0006763326819054782
6886000000.0 2.607339592941571e-05 0.0008395095355808735
6887000000.0 0.0004328654904384166 0.0007471730932593346
6888000000.0 0.0007096935296431184 0.00043799105333164334
6889000000.0 0.0006387084140442312 7.066547550493851e-05
6890000000.0 0.0007442609639838338 -0.00017432049207855016
6891000000.0 0.00041303824400529265 -0.0005577022093348205
6892000000.0 0.0002014327037613839 -0.0008836768101900816
6893000000.0 -0.0002268163370899856 -0.0007696746033616364
6894000000.0 -0.000485717027913779 -0.0005536052049137652
6895000000.0 -0.0007056739996187389 -0.00029359798645600677
6896000000.0 -0.0007261605933308601 9.920561569742858e-05
6897000000.0 -0.0005916048539802432 0.00026392063591629267
6898000000.0 -0.00024589733220636845 0.0007439158507622778
6899000000.0 0.00011948275641771033 0.0007740471628494561
6900000000.0 0.0004347755457274616 0.0005477991653606296
6901000000.0 0.0007705879397690296 0.00041792335105128586
6902000000.0 0.0007874019211158156 3.60589474439621e-05
6903000000.0 0.0008088210597634315 -0.00038651321665383875
6904000000.0 0.00047411173000000417 -0.0004953087773174047
6905000000.0 0.00011055184586439282 -0.0007886468665674329
6906000000.0 -0.00032913373433984816 -0.0007902017096057534
6907000000.0 -0.0006418221164494753 -0.00038853069418109953
6908000000.0 -0.0008438410004600883 -0.00011077276576543227
6909000000.0 -0.000732744112610817 0.0003255125193390995
6910000000.0 -0.00044421193888410926 0.0006138677708804607
6911000000.0 -0.00027291246806271374 0.0008375718025490642
6912000000.0 0.00016126297123264521 0.0008536225068382919
6913000000.0 0.0004064597887918353 0.0006755812210030854
6914000000.0 0.0006304408889263868 0.0003580836346372962
6915000000.0 0.0006728934240527451 -0.00015994223940651864
6916000000.0 0.0006655598408542573 -0.00047666250611655414
6917000000.0 0.0003683671238832176 -0.0006464811158366501
6918000000.0 -6.628302071476355e-05 -0.0006474877591244876
6919000000.0 -0.00043992133578285575 -0.0005631519015878439
6920000000.0 -0.0005006964202038944 -0.00047414470463991165
6921000000.0 -0.0007319120923057199 -2.6978201276506297e-05
6922000000.0 -0.0006291508907452226 0.0002998099662363529
6923000000.0 -0.00035487700370140374 0.0005386577686294913
6924000000.0 -0.00011387763515813276 0.0006943146581761539
6925000000.0 6.456344272010028e-05 0.000570921110920608
6926000000.0 0.0006523195188492537 0.000477434485219419
6927000000.0 0.0006351277115754783 0.00017073213530238718
6928000000.0 0.0005666071083396673 -0.0001270053762709722
6929000000.0 0.00048792819143272936 -0.0005016362410970032
6930000000.0 0.00022692080528941005 -0.0005339723429642618
6931000000.0 -2.7453746952232905e-05 -0.0005887927836738527
6932000000.0 -0.00039094308158382773 -0.0005127049516886473
6933000000.0 -0.0005940029514022171 -0.0003490929666440934
6934000000.0 -0.000710016640368849 -0.00012311121099628508
6935000000.0 -0.0005569325294345617 0.00016021693591028452
6936000000.0 -0.0005258454475551844 0.000417980772908777
6937000000.0 -8.784066449152306e-05 0.0007453669095411897
6938000000.0 0.00015755463391542435 0.0005804607644677162
6939000000.0 0.0005127773620188236 0.00044492853339761496
6940000000.0 0.0006520856404677033 7.182162516983226e-05
6941000000.0 0.0006673116586171091 -3.3225671359105036e-05
6942000000.0 0.0006163917132653296 -0.00025450822431594133
6943000000.0 0.0002416857605567202 -0.0006007601623423398
6944000000.0 -7.341345735767391e-06 -0.0007757373969070613
6945000000.0 -0.00015631092537660152 -0.0005761913489550352
6946000000.0 -0.00052796327508986 -0.00038721656892448664
6947000000.0 -0.0007899883203208447 -0.00016826005594339222
6948000000.0 -0.0006831431528553367 0.00033439992694184184
6949000000.0 -0.0004154903581365943 0.0005179634899832308
6950000000.0 -0.0002239841705886647 0.0007032058201730251
6951000000.0 0.00020345172379165888 0.0006626096437685192
6952000000.0 0.000509727222379297 0.0007252800278365612
6953000000.0 0.0006930202944204211 0.00021189992548897862
6954000000.0 0.0007811207906343043 -1.2609355508175213e-05
6955000000.0 0.0006142822676338255 -0.0003918195143342018
6956000000.0 0.0005131431389600039 -0.000781625509262085
6957000000.0 6.422614387702197e-05 -0.0008387903799302876
6958000000.0 -0.0003418806882109493 -0.0006287141004577279
6959000000.0 -0.0008016928914003074 -0.0005693819257430732
6960000000.0 -0.0009331506444141269 -0.00014452560571953654
6961000000.0 -0.0008358247578144073 0.0003776692319661379
6962000000.0 -0.0004894302692264318 0.0006504545453935862
6963000000.0 -1.8366092263022438e-05 0.0008752244175411761
6964000000.0 0.00037930472171865404 0.0008266568183898926
6965000000.0 0.0007441655034199357 0.0006454644608311355
6966000000.0 0.0009043211466632783 0.00011822584201581776
6967000000.0 0.0009713934850879014 -0.0002872887998819351
6968000000.0 0.0005774253513664007 -0.0007248204783536494
6969000000.0 0.000155299756443128 -0.0009412913932465017
6970000000.0 -0.0002470756880939007 -0.0009088009246625006
6971000000.0 -0.0005560594727285206 -0.0006383241270668805
6972000000.0 -0.000912236690055579 -0.00035916687920689583
6973000000.0 -0.0009905793704092503 0.0001879923656815663
6974000000.0 -0.0007613761117681861 0.0006770386244170368
6975000000.0 -0.0004074046737514436 0.0008276888402178884
6976000000.0 6.139945617178455e-05 0.000989318243227899
6977000000.0 0.00054219423327595 0.0006388580077327788
6978000000.0 0.0008417973876930773 0.0003812803188338876
6979000000.0 0.0009825704619288445 -4.365084896562621e-05
6980000000.0 0.0007845855434425175 -0.00038091070018708706
6981000000.0 0.000471911538625136 -0.000723729026503861
6982000000.0 -0.00011769224511226639 -0.000868519302457571
6983000000.0 -0.00041454931488260627 -0.0007337363203987479
6984000000.0 -0.0007337586721405387 -0.0006116270087659359
6985000000.0 -0.0007555308984592557 -8.924625581130385e-05
6986000000.0 -0.0006718166987411678 0.0003293128393124789
6987000000.0 -0.0006056059501133859 0.0005710195400752127
6988000000.0 -0.00019159865041729063 0.0007644942961633205
6989000000.0 0.0001855752634583041 0.0007733776001259685
6990000000.0 0.0005740935448557138 0.0005420470261014998
6991000000.0 0.0007540202932432294 0.00034138490445911884
6992000000.0 0.0007514007738791406 -2.675923860806506e-05
6993000000.0 0.0006338027305901051 -0.0004411136615090072
6994000000.0 0.000274672667728737 -0.0007770528318360448
6995000000.0 2.0648772988351993e-05 -0.0007806604262441397
6996000000.0 -0.00045971988583914936 -0.0007705124444328249
6997000000.0 -0.000619784346781671 -0.00040901362081058323
6998000000.0 -0.0009276005439460278 -1.6258107280009426e-05
6999000000.0 -0.0007637921953573823 0.0002734182635322213
7000000000.0 -0.0005302976351231337 0.0006339969695545733
