! Created with skrf 1.10.0 (http://scikit-rf.org).
# Hz S RI R 50.0 
!freq ReS11 ImS11
!
6000000000.0 -0.00029697729041799903 -0.00272755092009902
6001000000.0 -0.0016918807523325086 -0.0024103072937577963
6002000000.0 -0.002679168712347746 -0.0012766850413754582
6003000000.0 -0.0029222825542092323 8.668597001815215e-05
6004000000.0 -0.0026357583701610565 0.0014002216048538685
6005000000.0 -0.0015239407075569034 0.0024594657588750124
6006000000.0 -0.00016727329057175666 0.002772948006168008
6007000000.0 0.0012710256269201636 0.0024232962168753147
6008000000.0 0.0021132496185600758 0.001519115292467177
6009000000.0 0.0028135869652032852 0.0001721705193631351
6010000000.0 0.0026004270184785128 -0.0011063253041356802
6011000000.0 0.001868351479060948 -0.0021025161258876324
6012000000.0 0.00037112689460627735 -0.00269511342048645
6013000000.0 -0.0007569427252747118 -0.0025657492224127054
6014000000.0 -0.002078343415632844 -0.001848510466516018
6015000000.0 -0.0028151485603302717 -0.0008394574397243559
6016000000.0 -0.0027098602149635553 0.0007097451016306877
6017000000.0 -0.0020952129270881414 0.0018672418082132936
6018000000.0 -0.0008471186738461256 0.002516753738746047
6019000000.0 0.0005094996886327863 0.002693012822419405
6020000000.0 0.0016609004233032465 0.0019796148408204317
6021000000.0 0.0024134828709065914 0.0007959977956488729
6022000000.0 0.0025000704918056726 -0.0003017011913470924
6023000000.0 0.0019384479383006692 -0.0012047949712723494
6024000000.0 0.0010963263921439648 -0.0019818395376205444
6025000000.0 0.00025353452656418085 -0.0022422915790230036
6026000000.0 -0.0006304467679001391 -0.0019480260089039803
6027000000.0 -0.0005419736844487488 -0.002617925638332963
6028000000.0 -0.0024764183908700943 -0.0006011374644003808
6029000000.0 -0.0022129600401967764 0.0004978477372787893
6030000000.0 -0.001930474303662777 0.0020181224681437016
6031000000.0 -0.0012230566935613751 0.002267200732603669
6032000000.0 6.647532427450642e-05 0.002509827259927988
6033000000.0 0.0013369603548198938 0.002332858508452773
6034000000.0 0.0022841349709779024 0.0014130795607343316
6035000000.0 0.0029042710084468126 0.0003255114716012031
6036000000.0 0.0026948365848511457 -0.001323461765423417
6037000000.0 0.0018080356530845165 -0.002591377589851618
6038000000.0 0.00031547946855425835 -0.003272285684943199
6039000000.0 -0.0012707968708127737 -0.0028737580869346857
6040000000.0 -0.0025929738767445087 -0.0017920054960995913
6041000000.0 -0.003178160171955824 -0.00039688224205747247
6042000000.0 -0.0029046640265733004 0.0012847431935369968
6043000000.0 -0.0020693778060376644 0.0025589969009160995
6044000000.0 -0.0007022566860541701 0.0032797185704112053
6045000000.0 0.0010835675057023764 0.0032506713178008795
6046000000.0 0.002412298461422324 0.002339308150112629
6047000000.0 0.0034171317238360643 0.0009630531421862543
6048000000.0 0.0034932594280689955 -0.0007215267978608608
6049000000.0 0.0026384193915873766 -0.0024825010914355516
6050000000.0 0.000982899684458971 -0.003545838175341487
6051000000.0 -0.0008439047960564494 -0.0037048757076263428
6052000000.0 -0.002662284066900611 -0.0029899280052632093
6053000000.0 -0.003950147889554501 -0.0012368244351819158
6054000000.0 -0.0041913860477507114 0.0008809431456029415
6055000000.0 -0.0032391678541898727 0.0028273481875658035
6056000000.0 -0.0012976008001714945 0.004235407337546349
6057000000.0 0.000931250979192555 0.0045927162282168865
6058000000.0 0.003425219561904669 0.003647959092631936
6059000000.0 0.004983821418136358 0.0014095255173742771
6060000000.0 0.005432483274489641 -0.001363355782814324
6061000000.0 0.004676483105868101 -0.005033812019973993
6062000000.0 0.0018439182313159108 -0.008100982755422592
6063000000.0 -0.0061777676455676556 -0.012987715192139149
6064000000.0 -0.02051367796957493 0.009459070861339569
6065000000.0 0.00434125168249011 0.021171413362026215
6066000000.0 0.007962550967931747 -0.0020566610619425774
6067000000.0 0.0018945005722343922 -0.003218632424250245
6068000000.0 -0.0002612977405078709 -0.001983208581805229
6069000000.0 -0.0012164569925516844 -0.0007792351534590125
6070000000.0 -0.0010759411379694939 0.00033040670678019524
6071000000.0 -0.00041372134000994265 0.0008966049063019454
6072000000.0 0.00016208745364565402 0.001009353087283671
6073000000.0 0.0009057291899807751 0.0005701775662600994
6074000000.0 0.001355511718429625 -0.00016999940271489322
6075000000.0 0.0010560350492596626 -0.0005353419692255557
6076000000.0 0.0007258441182784736 -0.001055954722687602
6077000000.0 -4.097778219147585e-05 -0.0011087411548942327
6078000000.0 -0.0008236568537540734 -0.0012975152349099517
6079000000.0 -0.0011657901341095567 -0.0006876458064652979
6080000000.0 -0.0014139661798253655 7.123299496925029e-07
6081000000.0 -0.0013227203162387013 0.0009421940194442868
6082000000.0 -0.0006841535214334726 0.0010705603053793311
6083000000.0 8.012139733182266e-05 0.001665481016971171
6084000000.0 0.00076117436401546 0.0012593347346410155
6085000000.0 0.0012436599936336279 0.0009140321053564548
6086000000.0 0.0017434944165870547 0.0001383854978485033
6087000000.0 0.0012350173201411963 -0.0005760500207543373
6088000000.0 0.0008917907834984362 -0.001115400460548699
6089000000.0 8.904443529900163e-05 -0.0016223255079239607
6090000000.0 -0.00041601681732572615 -0.0014422120293602347
6091000000.0 -0.0011135662207379937 -0.0007871331181377172
6092000000.0 -0.0016328291967511177 -0.0002653117408044636
6093000000.0 -0.0015171911800280213 0.00046589976409450173
6094000000.0 -0.0009867354528978467 0.0011216412531211972
6095000000.0 -0.0003835858078673482 0.001529259025119245
6096000000.0 3.072146500926465e-05 0.0018222962971776724
6097000000.0 0.0011980374110862613 0.0015590852126479149
6098000000.0 0.0017851318698376417 0.0007199764368124306
6099000000.0 0.0019430191023275256 -5.610651714960113e-05
6100000000.0 0.001695421990007162 -0.001305849989876151
6101000000.0 0.000721299322322011 -0.0019754471722990274
6102000000.0 -0.000399955315515399 -0.002294126432389021
6103000000.0 -0.0015744812553748488 -0.002129030879586935
6104000000.0 -0.0023034713231027126 -0.0007751229568384588
6105000000.0 -0.0025897733867168427 0.0009686899138614535
6106000000.0 -0.001155331963673234 0.0022223293781280518
6107000000.0 0.00025612532044760883 0.0023600587155669928
6108000000.0 0.0016203242121264338 0.0015913111856207252
6109000000.0 0.0020973198115825653 0.0005370964645408094
6110000000.0 0.0019128655549138784 -0.000533988990355283
6111000000.0 0.0009515535784885287 -0.001180563704110682
6112000000.0 0.0004219417169224471 -0.0014426185516640544
6113000000.0 -0.0006278309156186879 -0.0012388979084789753
6114000000.0 -0.0010281306458637118 -0.0007275838870555162
6115000000.0 -0.0010207457235082984 -0.00039072727668099105
6116000000.0 -0.0009558371384628117 0.0003703375405166298
6117000000.0 -0.0005188946961425245 0.000718361814506352
6118000000.0 8.293891733046621e-05 0.0008317208848893642
6119000000.0 0.00032357953023165464 0.0006356596131809056
6120000000.0 0.0006959897582419217 0.00019012067059520632
6121000000.0 0.0006596037419512868 6.809584010625258e-05
6122000000.0 0.000284818175714463 -0.00014956659288145602
6123000000.0 -4.157091098022647e-05 -0.00029991823248565197
6124000000.0 -9.379781113239005e-05 -5.505662920768373e-05
6125000000.0 -6.466201739385724e-05 5.622888056677766e-05
6126000000.0 -1.4862045645713806e-05 0.0003098694432992488
6127000000.0 0.0004574149497784674 0.0004805712669622153
6128000000.0 0.0006041956949047744 0.00020375216263346374
6129000000.0 0.0005227045039646327 -0.00017571657372172922
6130000000.0 0.00033782803802751005 -0.0006567484815604985
6131000000.0 -0.00012584323121700436 -0.001068274024873972
6132000000.0 -0.0004327166825532913 -0.000527209835126996
6133000000.0 -0.0010300622088834643 -5.83083565288689e-05
6134000000.0 -0.0008678962476551533 0.00027532156673260033
6135000000.0 -0.0008873495971783996 0.0005238020676188171
6136000000.0 -0.0005050742765888572 0.0010955845937132835
6137000000.0 0.00017985845624934882 0.0011470550671219826
6138000000.0 0.0007573705515824258 0.0008954231743700802
6139000000.0 0.0012632414000108838 0.00038610323099419475
6140000000.0 0.0012292030733078718 -0.00036838758387602866
6141000000.0 0.0009740774985402822 -0.0010773568646982312
6142000000.0 0.000493350438773632 -0.0013657582458108664
6143000000.0 -0.0005825603730045259 -0.0015970203094184399
6144000000.0 -0.0011618867283686996 -0.0012936106650158763
6145000000.0 -0.0017565125599503517 -0.0004338101716712117
6146000000.0 -0.0016890096012502909 0.000673614558763802
6147000000.0 -0.0012946458300575614 0.0013847454683855176
6148000000.0 -0.00028634266345761716 0.0017799101769924164
6149000000.0 0.0004924822133034468 0.0018050824292004108
6150000000.0 0.0014161434955894947 0.0013741913717240095
6151000000.0 0.001973246457055211 0.00017311157716903836
6152000000.0 0.0020987894386053085 -0.0009982194751501083
6153000000.0 0.0012913785176351666 -0.0017867983551695943
6154000000.0 1.0977750207530335e-05 -0.0022645199205726385
6155000000.0 -0.001044797943904996 -0.0019515977473929524
6156000000.0 -0.00211474415846169 -0.001151030184701085
6157000000.0 -0.0023427829146385193 0.0003512169059831649
6158000000.0 -0.00202954956330359 0.0017146363388746977
6159000000.0 -0.0005808414425700903 0.002529547782614827
6160000000.0 0.0012102160835638642 0.002456151181831956
6161000000.0 0.002203636569902301 0.0011605514446273446
6162000000.0 0.0021768619772046804 -0.0006911876262165606
6163000000.0 0.0007187952869571745 -0.0019919476471841335
6164000000.0 -0.0006996971787884831 -0.0015314538031816483
6165000000.0 -0.0010226836893707514 -8.959436672739685e-05
6166000000.0 -0.0004585784627124667 0.0007748488569632173
6167000000.0 0.00034461499308235943 0.00019771423831116408
6168000000.0 0.0006097625591792166 -0.00018582546908874065
6169000000.0 0.0001181998013635166 -0.0005406105774454772
6170000000.0 -0.00030912135844118893 -0.0007994810002855957
6171000000.0 -0.0009643239318393171 -0.00018483554595150054
6172000000.0 -0.0010140619706362486 0.00022540928330272436
6173000000.0 -0.0007754460093565285 0.0008940784027799964
6174000000.0 -0.00021952454699203372 0.0011504312278702855
6175000000.0 0.000505377072840929 0.0010496712056919932
6176000000.0 0.000976079551037401 0.0006534949643537402
6177000000.0 0.0011978551046922803 -0.0001704960159258917
6178000000.0 0.0010787865612655878 -0.0006187741528265178
6179000000.0 0.00046498861047439277 -0.0013038008473813534
6180000000.0 -0.0002255443250760436 -0.0010336240520700812
6181000000.0 -0.0008369085844606161 -0.0009298099321313202
6182000000.0 -0.001193846808746457 -0.00018423250003252178
6183000000.0 -0.0010599050438031554 0.00017181970179080963
6184000000.0 -0.0007039979682303965 0.0007410321268253028
6185000000.0 -0.0002359154459554702 0.0008091706549748778
6186000000.0 0.0002787260164041072 0.0008509163744747639
6187000000.0 0.0004286031180527061 0.0006488257204182446
6188000000.0 0.0006498238071799278 0.00027839490212500095
6189000000.0 0.0005880965618416667 0.0002121047436958179
6190000000.0 0.0005739695043303072 -0.00038996178773231804
6191000000.0 0.0006470817024819553 -0.00044258323032408953
6192000000.0 0.00019724483718164265 -0.000800786423496902
6193000000.0 2.8040985853294842e-05 -0.0007802442996762693
6194000000.0 -0.00016911962302401662 -0.0005787790869362652
6195000000.0 -0.000620829698164016 -0.0004165006394032389
6196000000.0 -0.0007401740876957774 -0.00011176805855939165
6197000000.0 -0.0007474433514289558 0.00024612381821498275
6198000000.0 -0.00050536566413939 0.0005262911436147988
6199000000.0 8.818251444608904e-07 0.000814690429251641
6200000000.0 0.00013370189117267728 0.0008816999616101384
6201000000.0 0.0007243231520988047 0.0006815713131800294
6202000000.0 0.0008258530870079994 0.00021759346418548375
6203000000.0 0.0009805603185668588 -0.00014153961092233658
6204000000.0 0.0006752661429345608 -0.0006308404845185578
6205000000.0 0.0004526396805886179 -0.0010187423322349787
6206000000.0 -0.00022233564232010394 -0.0009404251468367875
6207000000.0 -0.0007100437069311738 -0.0007372744148597121
6208000000.0 -0.0011087588500231504 -0.0003692840982694179
6209000000.0 -0.0009905094048008323 0.0002493324864190072
6210000000.0 -0.0007677371613681316 0.000879884697496891
6211000000.0 -0.0003154668665956706 0.0010114035103470087
6212000000.0 0.0007041374919936061 0.0009330533212050796
6213000000.0 0.0010548264253884554 0.00040397210977971554
6214000000.0 0.0013228576863184571 -0.0002662909682840109
6215000000.0 0.000863320310600102 -0.0008276667213067412
6216000000.0 2.672453956620302e-05 -0.0012829949846491218
6217000000.0 -0.0008606151677668095 -0.0009910332737490535
6218000000.0 -0.0011834230972453952 -0.00023385843087453395
6219000000.0 -0.0012164248619228601 0.00086126261157915
6220000000.0 -0.00029001309303566813 0.0013594998745247722
6221000000.0 0.0008464204147458076 0.0011482746340334415
6222000000.0 0.0016041010385379195 0.00039613907574675977
6223000000.0 0.0013800812885165215 -0.0005692357663065195
6224000000.0 0.0006109367241151631 -0.0013462335336953402
6225000000.0 -0.00034212833270430565 -0.00155453581828624
6226000000.0 -0.0014722745399922132 -0.0009230728028342128
6227000000.0 -0.0018168409587815404 -3.26401786878705e-05
6228000000.0 -0.0013188107404857874 0.0011962915305048227
6229000000.0 -0.0003705833514686674 0.001757203135639429
6230000000.0 0.0005801760707981884 0.0016905569937080145
6231000000.0 0.001407189411111176 0.0009911132510751486
6232000000.0 0.0017567211762070656 0.00019190039893146604
6233000000.0 0.001497302670031786 -0.0009047178318724036
6234000000.0 0.0007819491438567638 -0.0014287494122982025
6235000000.0 -0.00012059251457685605 -0.0017499882960692048
6236000000.0 -0.0010927474359050393 -0.0014166716719046235
6237000000.0 -0.0016031410777941346 -0.0008471427136100829
6238000000.0 -0.0018424431327730417 0.00024101455346681178
6239000000.0 -0.00142371014226228 0.0011274785501882434
6240000000.0 -0.0006131261470727623 0.0014712801203131676
6241000000.0 0.0001555267663206905 0.001950260833837092
6242000000.0 0.0009220901993103325 0.0014294086722657084
6243000000.0 0.001701297122053802 0.0007054618326947093
6244000000.0 0.001979982014745474 -0.00025756628019735217
6245000000.0 0.0016171734314411879 -0.0011018931400030851
6246000000.0 0.0009033356327563524 -0.00182326918002218
6247000000.0 -0.0002372444432694465 -0.0020302594639360905
6248000000.0 -0.0012369519099593163 -0.001556023140437901
6249000000.0 -0.002039823681116104 -0.0008096125675365329
6250000000.0 -0.00216392963193357 7.570745219709352e-05
6251000000.0 -0.0015833646757528186 0.0014627487398684025
6252000000.0 -0.0007632928318344057 0.002105437219142914
6253000000.0 0.0004204714496154338 0.002151647349819541
6254000000.0 0.0016100143548101187 0.0018070611404255033
6255000000.0 0.0021805549040436745 0.0007056412287056446
6256000000.0 0.0022932321298867464 -0.00042154992115683854
6257000000.0 0.0016523549566045403 -0.0017293132841587067
6258000000.0 0.0005428697913885117 -0.0021587328519672155
6259000000.0 -0.0008346331887878478 -0.0020186223555356264
6260000000.0 -0.0017268091905862093 -0.0015259678475558758
6261000000.0 -0.0018912717932835221 -0.00035305932397022843
6262000000.0 -0.0019162236712872982 0.0007579032680951059
6263000000.0 -0.0011672958498820662 0.0016828987281769514
6264000000.0 -6.106662476668134e-05 0.0018690802389755845
6265000000.0 0.0008154856623150408 0.0018150877440348268
6266000000.0 0.001422592788003385 0.0012086739297956228
6267000000.0 0.001801385311409831 3.773533899220638e-05
6268000000.0 0.0012852535583078861 -0.0008026963332667947
6269000000.0 0.0007278785924427211 -0.001398218795657158
6270000000.0 -9.53105409280397e-05 -0.0014830821892246604
6271000000.0 -0.0007799045415595174 -0.001208977191708982
6272000000.0 -0.0010737092234194279 -0.0004713517555501312
6273000000.0 -0.0009853319497779012 4.217951754981186e-06
6274000000.0 -0.0007095811306498945 0.0005139088607393205
6275000000.0 -0.0003533301060087979 0.0007270460482686758
6276000000.0 0.0002173256507376209 0.0006218123598955572
6277000000.0 0.00038004713132977486 0.00035033022868447006
6278000000.0 0.0002665555221028626 0.00010333471436752006
6279000000.0 0.00021949094661977142 -7.012767309788615e-05
6280000000.0 7.183992420323193e-05 -0.0001438997860532254
6281000000.0 0.000258254207437858 5.6776689234538935e-06
6282000000.0 0.0002525623713154346 0.00012223483645357192
6283000000.0 0.00016042165225371718 -4.60744668089319e-05
6284000000.0 0.0003936614084523171 -2.6878478820435703e-06
6285000000.0 0.00032470215228386223 -0.0004240299458615482
6286000000.0 5.998144479235634e-05 -0.00038522123941220343
6287000000.0 -4.8380297812400386e-06 -0.0005091039347462356
6288000000.0 -0.0004474231682252139 -0.0004779256123583764
6289000000.0 -0.0006993056740611792 -0.00015065290790516883
6290000000.0 -0.0008088910253718495 0.00010671019845176488
6291000000.0 -0.0005007833824492991 0.0005518712569028139
6292000000.0 -0.00016930053243413568 0.0007715540705248713
6293000000.0 0.0002791952283587307 0.0009369311737827957
6294000000.0 0.0005411467864178121 0.0005570749053731561
6295000000.0 0.000879331142641604 0.00012184694787720218
6296000000.0 0.0008053893106989563 -0.00013632320042233914
6297000000.0 0.0006476553389802575 -0.0006157747702673078
6298000000.0 0.00013043376384302974 -0.0008478405070491135
6299000000.0 -0.00027343936380930245 -0.0010010689729824662
6300000000.0 -0.0005238751764409244 -0.0006134056602604687
6301000000.0 -0.000984863843768835 -0.00040623193490318954
6302000000.0 -0.0010251726489514112 0.0001913120795506984
6303000000.0 -0.0015086804050952196 0.001153828576207161
6304000000.0 -0.0004738707793876529 0.0008204096229746938
6305000000.0 0.0001268144405912608 0.0009289610898122191
6306000000.0 0.0005955236847512424 0.0008304179646074772
6307000000.0 0.0007479664054699242 0.00046292663319036365
6308000000.0 0.0009360139374621212 -4.593467019731179e-05
6309000000.0 0.0009483654866926372 -0.00044782328768633306
6310000000.0 0.0003862353914882988 -0.0007544413674622774
6311000000.0 6.435618706746027e-05 -0.0009227860136888921
6312000000.0 -0.00039883426507003605 -0.0007142215617932379
6313000000.0 -0.0008165886392816901 -0.0005082479328848422
6314000000.0 -0.0008695374708622694 -6.206343823578209e-05
6315000000.0 -0.0007784618646837771 0.0003883793542627245
6316000000.0 -0.0005376302869990468 0.0006407718756236136
6317000000.0 6.4573682720947545e-06 0.0007378275040537119
6318000000.0 0.00034231002791784704 0.000769485195633024
6319000000.0 0.0005957684479653835 0.00037408937350846827
6320000000.0 0.0006073754630051553 0.00011734486179193482
6321000000.0 0.0005621268646791577 -0.00018718909996096045
6322000000.0 0.0003242233069613576 -0.00034729557228274643
6323000000.0 4.294990503694862e-05 -0.00027429507463239133
6324000000.0 -0.00012958605657331645 -0.0003335080691613257
6325000000.0 -0.00030736729968339205 -0.0001939099165610969
6326000000.0 -8.153801900334656e-05 -0.00013217619562055916
6327000000.0 -1.2180249541415833e-05 5.20015528309159e-05
6328000000.0 0.00011410711886128411 -9.229702118318528e-05
6329000000.0 -4.938795973430388e-05 -0.00023728175438009202
6330000000.0 -0.00028549268608912826 -0.0004947614506818354
6331000000.0 -0.0006732089095748961 -0.000187817175174132
6332000000.0 -0.0009182680514641106 0.0003683517861645669
6333000000.0 -0.0006995047442615032 0.0011214051628485322
6334000000.0 0.00011368744890205562 0.0013728647027164698
6335000000.0 0.0009407394682057202 0.0011582034640014172
6336000000.0 0.001556964823976159 0.00045757240150123835
6337000000.0 0.0015630371635779738 -0.0003650101425591856
6338000000.0 0.0010932189179584384 -0.0013188921147957444
6339000000.0 0.0002872523036785424 -0.0016793376998975873
6340000000.0 -0.0005373758031055331 -0.0015134451678022742
6341000000.0 -0.0014017731882631779 -0.001147591625340283
6342000000.0 -0.0018015463137999177 -0.00036591451498679817
6343000000.0 -0.001634041196666658 0.0006145855877548456
6344000000.0 -0.0012592514976859093 0.0013888916000723839
6345000000.0 -0.0004475692112464458 0.0017593910451978445
6346000000.0 0.0005345396930351853 0.0019154493929818273
6347000000.0 0.0013218761887401342 0.0013946816325187683
6348000000.0 0.001935446634888649 0.0005356164183467627
6349000000.0 0.002100123558193445 -0.0005547776818275452
6350000000.0 0.0016858108574524522 -0.0014431655872613192
6351000000.0 0.0007384622585959733 -0.0020960753317922354
6352000000.0 -0.0005039951647631824 -0.002314911223948002
6353000000.0 -0.00173864490352571 -0.001759803737513721
6354000000.0 -0.002481358125805855 -0.0007769981166347861
6355000000.0 -0.002617774996906519 0.000490633537992835
6356000000.0 -0.0020006613340228796 0.001768940594047308
6357000000.0 -0.0008708953391760588 0.0026777982711791992
6358000000.0 0.0007598370430059731 0.002774040913209319
6359000000.0 0.002011462114751339 0.002150534652173519
6360000000.0 0.002941238461062312 0.0008240338647738099
6361000000.0 0.002837134525179863 -0.0008547342731617391
6362000000.0 0.002120810793712735 -0.0023592656943947077
6363000000.0 0.00036957880365662277 -0.00305133406072855
6364000000.0 -0.0011787052499130368 -0.0027537213172763586
6365000000.0 -0.002467605285346508 -0.001704405527561903
6366000000.0 -0.0028952895663678646 -0.00028763830778189003
6367000000.0 -0.002660184632986784 0.0013050365960225463
6368000000.0 -0.0013830360257998109 0.002482909709215164
6369000000.0 6.58106873743236e-05 0.0027579213492572308
6370000000.0 0.00139931112062186 0.002167708706110716
6371000000.0 0.0022933748550713062 0.0009583438513800502
6372000000.0 0.002283667679876089 -0.00018437867402099073
6373000000.0 0.001792342052794993 -0.0013843004126101732
6374000000.0 0.000815867620985955 -0.0019200514070689678
6375000000.0 -0.0002643362677190453 -0.0018051870865747333
6376000000.0 -0.001061979797668755 -0.0013118021888658404
6377000000.0 -0.0014408233109861612 -0.0007896885508671403
6378000000.0 -0.0016388407675549388 5.718975808122195e-05
6379000000.0 -0.0011765820672735572 0.0007491502328775823
6380000000.0 -0.0007224167929962277 0.0011267040390521288
6381000000.0 -7.082140655256808e-05 0.0011013565817847848
6382000000.0 0.00048657829756848514 0.0010158438235521317
6383000000.0 0.0007992589380592108 0.0006184030789881945
6384000000.0 0.0009708211873658001 0.00014005028060637414
6385000000.0 0.0008899521781131625 -0.00023215996043290943
6386000000.0 0.0006834026426076889 -0.000627246918156743
6387000000.0 0.00023092396440915763 -0.000763832067605108
6388000000.0 -0.00017284491332247853 -0.0006711363676004112
6389000000.0 -0.0004344340704847127 -0.00044549573794938624
6390000000.0 -0.000425089179771021 -0.00018546603678259999
6391000000.0 -0.00030456221429631114 -5.406427590060048e-05
6392000000.0 -0.0002336254110559821 5.455375503515825e-05
6393000000.0 -0.0002382486272836104 4.648271351470612e-05
6394000000.0 -0.0003017330018337816 5.055977453594096e-06
6395000000.0 -0.0003806331369560212 0.00011953313514823094
6396000000.0 -0.00033707215334288776 0.00029865384567528963
6397000000.0 -0.00017569314513821155 0.00047894680756144226
6398000000.0 8.066770533332601e-05 0.0006719994125887752
6399000000.0 0.0005364157259464264 0.0006953684496693313
6400000000.0 0.0009117102599702775 0.00032667984487488866
6401000000.0 0.0009300070232711732 -0.00019361932936590165
6402000000.0 0.0009134425199590623 -0.0006233399035409093
6403000000.0 0.00046659426880069077 -0.0010151128517463803
6404000000.0 -7.032692519715056e-05 -0.001211860217154026
6405000000.0 -0.0007007248350419104 -0.001106144511140883
6406000000.0 -0.0011962703429162502 -0.0005671678227372468
6407000000.0 -0.0013245594454929233 5.4880518291611224e-05
6408000000.0 -0.0012573770945891738 0.0007459652260877192
6409000000.0 -0.0007115083280950785 0.0012757980730384588
6410000000.0 0.00010629941971274093 0.0016380276065319777
6411000000.0 0.0009223040542565286 0.0014781162608414888
6412000000.0 0.0014659918379038572 0.0008365822141058743
6413000000.0 0.0017390139400959015 1.543414509797003e-05
6414000000.0 0.0015442013973370194 -0.0009597932803444564
6415000000.0 0.0008913807105273008 -0.0016319410642609
6416000000.0 4.352046380518004e-05 -0.001923049334436655
6417000000.0 -0.001008233637548983 -0.001635062275454402
6418000000.0 -0.0017037480138242245 -0.0009522478794679046
6419000000.0 -0.0019780402071774006 -9.121245966525748e-05
6420000000.0 -0.0016438855091109872 0.0008940378320403397
6421000000.0 -0.001047847094014287 0.0016968307318165898
6422000000.0 7.584402283100644e-06 0.00190922268666327
6423000000.0 0.0008678725571371615 0.0017017930513247848
6424000000.0 0.0016366118798032403 0.0010052287252619863
6425000000.0 0.0018146024085581303 0.00013467742246575654
6426000000.0 0.0016398342559114099 -0.0006433891830965877
6427000000.0 0.0009940543677657843 -0.0013488599797710776
6428000000.0 0.00031085030059330165 -0.001730415620841086
6429000000.0 -0.0005205074558034539 -0.001723341760225594
6430000000.0 -0.001286700484342873 -0.001228592824190855
6431000000.0 -0.0015771611360833049 -0.0003327237209305167
6432000000.0 -0.0015830849297344685 0.0003903959586750716
6433000000.0 -0.0013138636713847518 0.0010581884998828173
6434000000.0 -0.0005982448346912861 0.0014976758975535631
6435000000.0 0.00027397149824537337 0.0016216861549764872
6436000000.0 0.00084879738278687 0.0013515790924429893
6437000000.0 0.001404283568263054 0.0008465040591545403
6438000000.0 0.0016668231692165136 4.1205381421605125e-05
6439000000.0 0.001349182683043182 -0.0007078397320583463
6440000000.0 0.0010265548480674624 -0.0013603862607851624
6441000000.0 0.00035882031079381704 -0.0016082568326964974
6442000000.0 -0.000536106585059315 -0.0016787578351795673
6443000000.0 -0.0011955025838688016 -0.0013685509329661727
6444000000.0 -0.001730835298076272 -0.00047885291860438883
6445000000.0 -0.0017218870343640447 0.0004461119242478162
6446000000.0 -0.0013873609714210033 0.0012556621804833412
6447000000.0 -0.0006188119295984507 0.0017937560332939029
6448000000.0 0.00031352206133306026 0.0019063359359279275
6449000000.0 0.0010781314922496676 0.0014913651393726468
6450000000.0 0.0016942709917202592 0.0008100587874650955
6451000000.0 0.0019855168648064137 -0.00013792194658890367
6452000000.0 0.001633990090340376 -0.0010331517551094294
6453000000.0 0.0008554537198506296 -0.0017076915828511119
6454000000.0 -1.0051322533399798e-05 -0.0018855895614251494
6455000000.0 -0.0009401855641044676 -0.0018416567472741008
6456000000.0 -0.001702242298051715 -0.0011346278479322791
6457000000.0 -0.0020512924529612064 -6.40631333226338e-05
6458000000.0 -0.0017984710866585374 0.0008099080296233296
6459000000.0 -0.0012528777588158846 0.0017295260913670063
6460000000.0 -0.00010271535575157031 0.0020546414889395237
6461000000.0 0.0008478629752062261 0.001867987448349595
6462000000.0 0.0015601953491568565 0.0012591974809765816
6463000000.0 0.0019073387375101447 0.0003668500285129994
6464000000.0 0.0018904467578977346 -0.0005738874315284193
6465000000.0 0.001425836468115449 -0.0013823643093928695
6466000000.0 0.0006164174410514534 -0.002019708277657628
6467000000.0 -0.0003415665705688298 -0.002070356858894229
6468000000.0 -0.0014398153871297836 -0.0016609544400125742
6469000000.0 -0.0020547632593661547 -0.0007012573187239468
6470000000.0 -0.002121708123013377 0.00042227853555232286
6471000000.0 -0.00171669980045408 0.0013633818598464131
6472000000.0 -0.0007359639857895672 0.0021777080837637186
6473000000.0 0.00039110667421482503 0.0023131149355322123
6474000000.0 0.0014459571102634072 0.0017030745511874557
6475000000.0 0.002220943570137024 0.0005410541198216379
6476000000.0 0.0022253086790442467 -0.0005445753922685981
6477000000.0 0.0015982651384547353 -0.0015312556643038988
6478000000.0 0.0006038335850462317 -0.002235701773315668
6479000000.0 -0.0006435714894905686 -0.00222071073949337
6480000000.0 -0.0015633483417332172 -0.0015205633826553822
6481000000.0 -0.0020652953535318375 -0.00040615949546918273
6482000000.0 -0.0019713358487933874 0.0006351874326355755
6483000000.0 -0.001230332301929593 0.0016801075544208288
6484000000.0 -9.493731340626255e-05 0.0019813450053334236
6485000000.0 0.0008716409793123603 0.0016902514034882188
6486000000.0 0.001466745394282043 0.0008918544044718146
6487000000.0 0.001675596460700035 -0.00018461007857695222
6488000000.0 0.0011676728026941419 -0.0010885108495131135
6489000000.0 0.0003321469121146947 -0.0013327470514923334
6490000000.0 -0.0005862601683475077 -0.0011890865862369537
6491000000.0 -0.0009411526843905449 -0.0003793545765802264
6492000000.0 -0.0007303202874027193 7.294481474673375e-05
6493000000.0 -0.00026582818827591836 0.0004555525374598801
6494000000.0 0.00011825610999949276 0.0003693177131935954
6495000000.0 0.0003237460332456976 1.8527754946262576e-05
6496000000.0 0.00017045761342160404 -0.00022556429030373693
6497000000.0 -0.00017032983305398375 -0.0003707829164341092
6498000000.0 -0.0004404113569762558 -0.0001134641861426644
6499000000.0 -0.0005453453632071614 8.654671546537429e-05
6500000000.0 -0.0004579142841976136 0.0004771753738168627
6501000000.0 -5.393781611928716e-05 0.0008256308501586318
6502000000.0 0.00039159192238003016 0.00079854775685817
6503000000.0 0.0008011369500309229 0.0005511493072845042
6504000000.0 0.0010659785475581884 -6.845845200587064e-05
6505000000.0 0.0008433673647232354 -0.00066756660817191
6506000000.0 0.00043386922334320843 -0.0009980538161471486
6507000000.0 -0.00010489991109352559 -0.001193143893033266
6508000000.0 -0.0006871261866763234 -0.0009169080294668674
6509000000.0 -0.0009949745144695044 -0.0004200186813250184
6510000000.0 -0.0011743945069611073 9.820846753427759e-05
6511000000.0 -0.0009778975509107113 0.0006228300626389682
6512000000.0 -0.0006567318923771381 0.0011154341045767069
6513000000.0 -2.9863009331165813e-05 0.0012436073739081621
6514000000.0 0.0006855609244666994 0.0011912569170817733
6515000000.0 0.0011338505428284407 0.0007849422399885952
6516000000.0 0.0013944698730483651 6.217670943442499e-06
6517000000.0 0.0012759363744407892 -0.0006138927419669926
6518000000.0 0.0007859754259698093 -0.0012176535092294216
6519000000.0 0.00018824500148184597 -0.0015234528109431267
6520000000.0 -0.0005759965279139578 -0.0013455988373607397
6521000000.0 -0.0013208085438236594 -0.0009649579878896475
6522000000.0 -0.001545497216284275 -0.0003012806409969926
6523000000.0 -0.0015281023224815726 0.000523229711689055
6524000000.0 -0.001141772954724729 0.0011521258857101202
6525000000.0 -0.00043225177796557546 0.0016249152831733227
6526000000.0 0.0004422151541803032 0.001573251560330391
6527000000.0 0.0012638969346880913 0.0013048002729192376
6528000000.0 0.001721040578559041 0.0005096002714708447
6529000000.0 0.0017089041648432612 -0.00038362148916348815
6530000000.0 0.0013442899798974395 -0.001274898531846702
6531000000.0 0.0004991597379557788 -0.0017817678162828088
6532000000.0 -0.0003704795672092587 -0.0018729099538177252
6533000000.0 -0.0013334047980606556 -0.0014503388665616512
6534000000.0 -0.0017341916682198644 -0.0006032785749994218
6535000000.0 -0.001882130978628993 0.00031030678655952215
6536000000.0 -0.0014553982764482498 0.0011412949534133077
6537000000.0 -0.0006880007567815483 0.0017349973786622286
6538000000.0 0.000203429110115394 0.0019127036212012172
6539000000.0 0.001168084447272122 0.0014564390294253826
6540000000.0 0.0016891987761482596 0.0006609372794628143
6541000000.0 0.0018182886997237802 -0.0002047501620836556
6542000000.0 0.0013949760468676686 -0.0010666089365258813
6543000000.0 0.0008358921040780842 -0.0015525236958637834
6544000000.0 -0.00013101471995469183 -0.0017704855417832732
6545000000.0 -0.0009620091877877712 -0.0014838437782600522
6546000000.0 -0.0014850214356556535 -0.0008552062790840864
6547000000.0 -0.0016659119864925742 1.4026099961483851e-05
6548000000.0 -0.0015243777306750417 0.0007047361577861011
6549000000.0 -0.0009184153750538826 0.001440598163753748
6550000000.0 -0.00022501124476548284 0.0016809713561087847
6551000000.0 0.0005113649531267583 0.0015400419943034649
6552000000.0 0.0012271718587726355 0.0010673966025933623
6553000000.0 0.0015999398892745376 0.0003341974806971848
6554000000.0 0.001463920227251947 -0.0004195837245788425
6555000000.0 0.0011049843160435557 -0.001096832798793912
6556000000.0 0.0006703051622025669 -0.0014517803210765123
6557000000.0 -0.00022170452575664967 -0.0016268575564026833
6558000000.0 -0.0009801201522350311 -0.001363151241093874
6559000000.0 -0.001424694899469614 -0.0007254978409036994
6560000000.0 -0.0016051578568294644 0.00011643446487141773
6561000000.0 -0.0014271881664171815 0.000748087593819946
6562000000.0 -0.0008849372388795018 0.0013412254629656672
6563000000.0 -0.00010590305464575067 0.0016470277914777398
6564000000.0 0.0005845302948728204 0.0015104032354429364
6565000000.0 0.0013787132920697331 0.001104432507418096
6566000000.0 0.001692740828730166 0.000349243578966707
6567000000.0 0.001615556888282299 -0.00048379000509157777
6568000000.0 0.0012333296472206712 -0.001232015318237245
6569000000.0 0.0005307653918862343 -0.0015834856312721968
6570000000.0 -0.00017118811956606805 -0.001586608006618917
6571000000.0 -0.0009837308898568153 -0.0013720012502744794
6572000000.0 -0.0016166043933480978 -0.0007689225021749735
6573000000.0 -0.001830558874644339 5.622802200377919e-05
6574000000.0 -0.0016729454509913921 0.0008502519922330976
6575000000.0 -0.0010842339834198356 0.001630226382985711
6576000000.0 -0.0001376822910970077 0.001995083875954151
6577000000.0 0.0009585691732354462 0.0019131351727992296
6578000000.0 0.0017781980568543077 0.0012974095297977328
6579000000.0 0.0022028665989637375 0.00022182676184456795
6580000000.0 0.002257958520203829 -0.0007822931511327624
6581000000.0 0.001645503449253738 -0.0019656051881611347
6582000000.0 0.00021935287804808468 -0.0025969266425818205
6583000000.0 -0.0011946060694754124 -0.002391441259533167
6584000000.0 -0.0021529700607061386 -0.0014001460513100028
6585000000.0 -0.002652211580425501 -9.635153401177377e-05
6586000000.0 -0.0024779094383120537 0.0013174699852243066
6587000000.0 -0.0014391898876056075 0.0023108713794499636
6588000000.0 0.0001680006243987009 0.002619314705953002
6589000000.0 0.001449204864911735 0.0021684905514121056
6590000000.0 0.00225297873839736 0.0012132207630202174
6591000000.0 0.002557267202064395 -0.00016137116472236812
6592000000.0 0.0019435436697676778 -0.0014023068360984325
6593000000.0 0.0010059457272291183 -0.002128259977325797
6594000000.0 -0.00028037477750331163 -0.0023287013173103333
6595000000.0 -0.0013553900644183159 -0.0017016197089105844
6596000000.0 -0.0019945804961025715 -0.0008854929474182427
6597000000.0 -0.0020073053892701864 0.00032197582186199725
6598000000.0 -0.001557107432745397 0.0011509073665365577
6599000000.0 -0.0007441475172527134 0.0016629509627819061
6600000000.0 0.00011294795694993809 0.0017826955299824476
6601000000.0 0.0010692533105611801 0.0014195978874340653
6602000000.0 0.0015177777968347073 0.0008056510123424232
6603000000.0 0.0015655107563361526 -0.00010214298526989296
6604000000.0 0.0013563146349042654 -0.0007681479910388589
6605000000.0 0.0007859371253289282 -0.0013038241304457188
6606000000.0 4.960422666044906e-05 -0.0013196311192587018
6607000000.0 -0.0006952594849281013 -0.0011518747778609395
6608000000.0 -0.0009323857957497239 -0.0005997088737785816
6609000000.0 -0.0011447308352217078 -0.00014382286462932825
6610000000.0 -0.0008912429329939187 0.0004919445491395891
6611000000.0 -0.0006070135859772563 0.0007186313741840422
6612000000.0 -0.0002454174100421369 0.0008475771173834801
6613000000.0 0.00012301125389058143 0.0008153229719027877
6614000000.0 0.0005149905919097364 0.0006201560609042645
6615000000.0 0.0005868887528777122 0.000270569056738168
6616000000.0 0.0005602072924375534 -2.044108805421274e-05
6617000000.0 0.0006262838724069297 -0.000145567100844346
6618000000.0 0.0003585827653296292 -0.00032667984487488866
6619000000.0 0.000333089119521901 -0.0005144830793142319
6620000000.0 3.922516043530777e-05 -0.0005591171211563051
6621000000.0 -0.00020161873544566333 -0.0005577669362537563
6622000000.0 -0.0004639316175598651 -0.0004570080491248518
6623000000.0 -0.0006524173659272492 -0.00017682265024632215
6624000000.0 -0.0006459104479290545 9.565735672367737e-05
6625000000.0 -0.0004957949859090149 0.0003649835125543177
6626000000.0 -0.0003652438463177532 0.0006211172440089285
6627000000.0 -7.148843724280596e-05 0.0006667519919574261
6628000000.0 0.00014964638103265315 0.0007372944382950664
6629000000.0 0.0004317910934332758 0.00040119397453963757
6630000000.0 0.0005657044821418822 0.0002565715694800019
6631000000.0 0.0007861224585212767 -4.6638742787763476e-05
6632000000.0 0.0006472980021499097 -0.00040263778646476567
6633000000.0 0.00043096664012409747 -0.0007417367305606604
6634000000.0 0.00014437176287174225 -0.0009030530345626175
6635000000.0 -0.00024398260575253516 -0.0009102350450120866
6636000000.0 -0.0006178207113407552 -0.0006128050736151636
6637000000.0 -0.0009420107235200703 -0.00032132596243172884
6638000000.0 -0.0010411867406219244 0.00019823909678962082
6639000000.0 -0.0007888301624916494 0.0006297384388744831
6640000000.0 -0.00036690584965981543 0.0009958507725968957
6641000000.0 0.000124932688777335 0.0012217870680615306
6642000000.0 0.0006663822568953037 0.00095839035930112
6643000000.0 0.00127534253988415 0.0005534884403459728
6644000000.0 0.0014023988042026758 -0.0001516140764579177
6645000000.0 0.001065418473444879 -0.0008950507617555559
6646000000.0 0.0007284668390639126 -0.0014218908036127687
6647000000.0 -0.0001974925398826599 -0.00138688157312572
6648000000.0 -0.0008814816828817129 -0.001165657420642674
6649000000.0 -0.0014394776662811637 -0.0005488194874487817
6650000000.0 -0.0014340206980705261 0.00018727272981777787
6651000000.0 -0.0010561366798356175 0.0008789194980636239
6652000000.0 -0.0004986664862371981 0.0012521587777882814
6653000000.0 0.00010173444024985656 0.0014174235984683037
6654000000.0 0.000671546789817512 0.001059535425156355
6655000000.0 0.0010243344586342573 0.0005740230553783476
6656000000.0 0.0012859043199568987 8.603192691225559e-05
6657000000.0 0.0010073488811030984 -0.0006198438932187855
6658000000.0 0.0005766454269178212 -0.0009978734888136387
6659000000.0 0.00018242561782244593 -0.0011198368156328797
6660000000.0 -0.00036373917828314006 -0.0009351620683446527
6661000000.0 -0.0007397992885671556 -0.0007175407954491675
6662000000.0 -0.0009969765087589622 -0.00016283114382531494
6663000000.0 -0.000969399232417345 0.00021926643967162818
6664000000.0 -0.000677829550113529 0.0006037820130586624
6665000000.0 -0.0003417989646550268 0.0008546862518414855
6666000000.0 5.345146564650349e-05 0.0010760721052065492
6667000000.0 0.0004560364759527147 0.0007409446989186108
6668000000.0 0.000827788608148694 0.0006212412845343351
6669000000.0 0.0009310458553954959 0.0001942107337526977
6670000000.0 0.0009467632626183331 -0.00020282698096707463
6671000000.0 0.0008094690856523812 -0.0006764213903807104
6672000000.0 0.0005124621675349772 -0.0008792158914729953
6673000000.0 -7.735536200925708e-05 -0.0010763611644506454
6674000000.0 -0.0005169150535948575 -0.0009181752102449536
6675000000.0 -0.0008158563286997378 -0.000730768486391753
6676000000.0 -0.0011046230792999268 -0.00020889299048576504
6677000000.0 -0.0012655425816774368 0.00030986499041318893
6678000000.0 -0.0009211099240928888 0.0008142467704601586
6679000000.0 -0.000614857766777277 0.0012166851665824652
6680000000.0 1.6918140318011865e-05 0.0013787868665531278
6681000000.0 0.0006746970466338098 0.0014907779404893517
6682000000.0 0.0014534100191667676 0.0008765148813836277
6683000000.0 0.0016147970454767346 0.00012371764751151204
6684000000.0 0.0016534465830773115 -0.0007561068632639945
6685000000.0 0.0011662624310702085 -0.0014630332589149475
6686000000.0 0.000352226517861709 -0.001990336924791336
6687000000.0 -0.0006261913804337382 -0.00206195842474699
6688000000.0 -0.0017539823893457651 -0.0015522722387686372
6689000000.0 -0.0024544107727706432 -0.0004888048861175776
6690000000.0 -0.0024415552616119385 0.0009178881882689893
6691000000.0 -0.001681333058513701 0.002090391470119357
6692000000.0 -0.0003202668158337474 0.0028559279162436724
6693000000.0 0.0011968155158683658 0.0025042409542948008
6694000000.0 0.0024389931932091713 0.0015869500348344445
6695000000.0 0.0027170267421752214 0.00019798340508714318
6696000000.0 0.0026565194129943848 -0.0012362053385004401
6697000000.0 0.001615178189240396 -0.002350179012864828
6698000000.0 0.00023572370992042124 -0.0028935393784195185
6699000000.0 -0.0013451181584969163 -0.002683599479496479
6700000000.0 -0.002559713087975979 -0.0018276935443282127
6701000000.0 -0.0031932976562529802 2.626739842526149e-05
6702000000.0 -0.0029570620972663164 0.001766503439284861
6703000000.0 -0.0014154978562146425 0.0028450312092900276
6704000000.0 0.0002584398607723415 0.0034330920316278934
6705000000.0 0.0019461277406662703 0.00252995896153152
6706000000.0 0.0030951749067753553 0.0011744964867830276
6707000000.0 0.003041280433535576 -0.0006805165321566164
6708000000.0 0.0021738281939178705 -0.0022674917709082365
6709000000.0 0.0006174560985527933 -0.00294089550152421
6710000000.0 -0.000989728607237339 -0.002624851418659091
6711000000.0 -0.002092578448355198 -0.0014888473087921739
6712000000.0 -0.0023300640750676394 -0.0001541457459097728
6713000000.0 -0.002005139132961631 0.0009408100740984082
6714000000.0 -0.0010485625825822353 0.001816512318328023
6715000000.0 9.471151133766398e-05 0.001909921527840197
6716000000.0 0.0009712756145745516 0.0014594551175832748
6717000000.0 0.001399728935211897 0.000625584798399359
6718000000.0 0.001304090954363346 -0.000304410612443462
6719000000.0 0.0008008755976334214 -0.0007403992349281907
6720000000.0 0.0004742514865938574 -0.0007844382780604064
6721000000.0 0.00010078648483613506 -0.0007026520324870944
6722000000.0 -0.0002583583409432322 -0.00041450836579315364
6723000000.0 -0.00011333115253364667 -6.867431511636823e-05
6724000000.0 -5.9735375543823466e-05 -1.2293818144826218e-05
6725000000.0 2.8083883080398664e-05 -0.00020466279238462448
6726000000.0 -8.668290683999658e-05 -0.0003811664937529713
6727000000.0 -0.00047846673987805843 -0.00046477621071971953
6728000000.0 -0.0006377317477017641 -0.00025713653303682804
6729000000.0 -0.0009469213546253741 0.0001890163403004408
6730000000.0 -0.000752198277041316 0.0008591586956754327
6731000000.0 -0.00031652540201321244 0.0011286099907010794
6732000000.0 0.00041031991713680327 0.0010895180748775601
6733000000.0 0.0008720399346202612 0.0009909119689837098
6734000000.0 0.0013401064788922668 0.00027661066269502044
6735000000.0 0.0013978242641314864 -0.00042759382631629705
6736000000.0 0.001017359783872962 -0.001023653196170926
6737000000.0 0.00024974645930342376 -0.0014937568921595812
6738000000.0 -0.0003334645298309624 -0.0014833251480013132
6739000000.0 -0.0010776453418657184 -0.001057142042554915
6740000000.0 -0.0016877184389159083 -0.0004595705249812454
6741000000.0 -0.0015943229664117098 0.0003308073210064322
6742000000.0 -0.0013311883667483926 0.0010135930497199297
6743000000.0 -0.0007510407594963908 0.001752918236888945
6744000000.0 8.002633694559336e-05 0.0018802398117259145
6745000000.0 0.0012324184644967318 0.001694380771368742
6746000000.0 0.0018904501339420676 0.0007945044781081378
6747000000.0 0.0022254076320677996 -0.0001976978383027017
6748000000.0 0.0018360101385042071 -0.001164642977528274
6749000000.0 0.0009452824015170336 -0.002162751741707325
6750000000.0 -0.0002133860980393365 -0.0024266329128295183
6751000000.0 -0.0013582907849922776 -0.0018339614616706967
6752000000.0 -0.0021505991462618113 -0.0010129190050065517
6753000000.0 -0.0024398777168244123 0.00023470178712159395
6754000000.0 -0.0019306822214275599 0.0015163737116381526
6755000000.0 -0.000937985023483634 0.0022545435931533575
6756000000.0 0.0004079619830008596 0.0026681756135076284
6757000000.0 0.0014267018996179104 0.0020195827819406986
6758000000.0 0.002375213196501136 0.0011065556900575757
6759000000.0 0.0024763362016528845 -0.00026694254484027624
6760000000.0 0.0021401538979262114 -0.0014900832902640104
6761000000.0 0.000916962162591517 -0.002173831919208169
6762000000.0 -0.00019023273489437997 -0.0023187403567135334
6763000000.0 -0.0014157496625557542 -0.0019496803870424628
6764000000.0 -0.002037499565631151 -0.0009033973910845816
6765000000.0 -0.0023972054477781057 8.126712054945529e-05
6766000000.0 -0.0020040494855493307 0.0012610398698598146
6767000000.0 -0.0009947767248377204 0.0019118926720693707
6768000000.0 -9.964626951841637e-05 0.002228235127404332
6769000000.0 0.001080747228115797 0.0018970664823427796
6770000000.0 0.0019143990939483047 0.001258737756870687
6771000000.0 0.002139654941856861 0.0003205802058801055
6772000000.0 0.0020327544771134853 -0.0008995083626359701
6773000000.0 0.0014295176370069385 -0.001692777732387185
6774000000.0 0.0002367901470279321 -0.002192647196352482
6775000000.0 -0.0005940254195593297 -0.002151376334950328
6776000000.0 -0.001506771077401936 -0.0015352414920926094
6777000000.0 -0.002070851158350706 -0.0006511780666187406
6778000000.0 -0.002164346631616354 0.0004241548595018685
6779000000.0 -0.0016433909768238664 0.001312911044806242
6780000000.0 -0.0006730940076522529 0.0019314215751364827
6781000000.0 0.0002703540667425841 0.002064779167994857
6782000000.0 0.0012244823155924678 0.0016641783295199275
6783000000.0 0.0017940693069249392 0.0010823943885043263
6784000000.0 0.0020330280531197786 6.346933514578268e-05
6785000000.0 0.0017642301972955465 -0.0010202601552009583
6786000000.0 0.0012663223315030336 -0.0018909815698862076
6787000000.0 5.3768781071994454e-05 -0.0023371551651507616
6788000000.0 -0.0010042523499578238 -0.002154633402824402
6789000000.0 -0.0019429679960012436 -0.0012777225347235799
6790000000.0 -0.00240796129219234 -0.0002750825951807201
6791000000.0 -0.0024689838755875826 0.0009892864618450403
6792000000.0 -0.001534047769382596 0.002125481376424432
6793000000.0 -0.0003133739228360355 0.00266305566765368
6794000000.0 0.001114811864681542 0.002519225236028433
6795000000.0 0.0023982280399650335 0.0014636287232860923
6796000000.0 0.002730203792452812 0.00020489578309934586
6797000000.0 0.002396046882495284 -0.0014638409484177828
6798000000.0 0.001354471081867814 -0.002433118876069784
6799000000.0 -0.00012573171989060938 -0.002591869095340371
6800000000.0 -0.0014712121337652206 -0.002272371668368578
6801000000.0 -0.0023595725651830435 -0.0009396917303092778
6802000000.0 -0.0026177135296165943 0.0002600400766823441
6803000000.0 -0.0015985264908522367 0.0015966579085215926
6804000000.0 -0.0006938947481103241 0.0023639725986868143
6805000000.0 0.0005553759401664138 0.0021625524386763573
6806000000.0 0.0015491512604057789 0.0015220548957586288
6807000000.0 0.0017505171708762646 0.00010014500730903819
6808000000.0 0.0016267049359157681 -0.0005514844669960439
6809000000.0 0.000974372960627079 -0.0013500034110620618
6810000000.0 0.00012009451893391088 -0.0012875213287770748
6811000000.0 -0.00045677126036025584 -0.0010758069111034274
6812000000.0 -0.0005742301000282168 -0.0006180937052704394
6813000000.0 -0.0007147648721002042 -0.00027473436784930527
6814000000.0 -0.0007179197273217142 1.8545590137364343e-05
6815000000.0 -0.0007087765261530876 0.00028580232174135745
6816000000.0 -0.0004324896726757288 0.0004442702338565141
6817000000.0 -0.00020874780602753162 0.0006331899203360081
6818000000.0 1.8138860468752682e-05 0.0006685913540422916
6819000000.0 0.000334213167661801 0.000776630942709744
6820000000.0 0.000530918245203793 0.0004986246931366622
6821000000.0 0.0006046793423593044 0.0002031241456279531
6822000000.0 0.0007598790689371526 -7.300104334717616e-05
6823000000.0 0.0007390340324491262 -0.0004822343762498349
6824000000.0 0.0004941864754073322 -0.0007432151469402015
6825000000.0 0.00010789208317874 -0.0008645990747027099
6826000000.0 -0.000405236758524552 -0.0007677784888073802
6827000000.0 -0.0007062984514050186 -0.0007745101465843618
6828000000.0 -0.0008608658681623638 -0.0002057041274383664
6829000000.0 -0.0008679111488163471 0.00030408668681047857
6830000000.0 -0.0006579164764843881 0.000807912671007216
6831000000.0 -0.0002459601382724941 0.0009793961653485894
6832000000.0 0.00013720925198867917 0.0010141353122889996
6833000000.0 0.0008525674929842353 0.000848925206810236
6834000000.0 0.0011429917067289352 0.0002938403922598809
6835000000.0 0.0011559301055967808 -0.000249064207309857
6836000000.0 0.0008921943372115493 -0.0008521159761585295
6837000000.0 0.0003035116533283144 -0.0010793471010401845
6838000000.0 -0.0003263445687480271 -0.0010103581007570028
6839000000.0 -0.0008219287265092134 -0.0007708380580879748
6840000000.0 -0.0012826807796955109 -0.0002856672217603773
6841000000.0 -0.00112234428524971 0.00027590233366936445
6842000000.0 -0.0008485097205266356 0.0009496760321781039
6843000000.0 -0.00021656183525919914 0.0009233228047378361
6844000000.0 0.0002205208147643134 0.0011153980158269405
6845000000.0 0.0006167740793898702 0.0008666434441693127
6846000000.0 0.000936869764700532 0.0006314095226116478
6847000000.0 0.0011901917168870568 -0.00013875460717827082
6848000000.0 0.0010450101690366864 -0.00041282872552983463
6849000000.0 0.0006985993240959942 -0.0007893745205365121
6850000000.0 0.00034484328352846205 -0.001003845245577395
6851000000.0 -5.353465530788526e-05 -0.0010055709863081574
6852000000.0 -0.0005385138210840523 -0.0009694077307358384
6853000000.0 -0.0009310839814133942 -0.0008224104531109333
6854000000.0 -0.0012132901465520263 -0.00019665197760332376
6855000000.0 -0.001278223586268723 0.0003518580924719572
6856000000.0 -0.00122200942132622 0.00099336844868958
6857000000.0 -0.0004407326050568372 0.0017771089915186167
6858000000.0 0.000809842546004802 0.0019283543806523085
6859000000.0 0.0020584433805197477 0.0013235434889793396
6860000000.0 0.0023032340686768293 -0.0003986608353443444
6861000000.0 0.0016608606092631817 -0.0017716550501063466
6862000000.0 0.0002183013129979372 -0.0022051779087632895
6863000000.0 -0.0009078541188500822 -0.001732389209792018
6864000000.0 -0.0016274861991405487 -0.0007629399187862873
6865000000.0 -0.001360502210445702 0.0001509104622527957
6866000000.0 -0.0011765147792175412 0.0006787416059523821
6867000000.0 -0.0007171696051955223 0.0010454986477270722
6868000000.0 -0.0003814759256783873 0.0011933217756450176
6869000000.0 0.0001664993615122512 0.0012619205517694354
6870000000.0 0.0005853336770087481 0.0009836216922849417
6871000000.0 0.0010686308378353715 0.0005030912579968572
6872000000.0 0.001155675039626658 -6.959043093957007e-05
6873000000.0 0.0008804452372714877 -0.0006152387359179556
6874000000.0 0.00030018790857866406 -0.001186436042189598
6875000000.0 -8.299283945234492e-05 -0.0010784000623971224
6876000000.0 -0.00045546446926891804 -0.0008835759945213795
6877000000.0 -0.0009812633506953716 -0.0005580133874900639
6878000000.0 -0.0011253422126173973 3.7754907680209726e-05
6879000000.0 -0.0008770754211582243 0.0004943875246681273
6880000000.0 -0.0006487377686426044 0.0008042074623517692
6881000000.0 2.6508307200856507e-05 0.0005885872524231672
6882000000.0 3.053127875318751e-05 0.0004558108630590141
6883000000.0 -0.00039874145295470953 0.0005642584874294698
6884000000.0 0.000329915143083781 0.0007554592448286712
6885000000.0 0.0007832460687495768 9.393932850798592e-05
6886000000.0 0.0007641570409759879 -0.0008548478945158422
6887000000.0 -0.00023517846420872957 -0.0009732386097311974
6888000000.0 -0.0006730283494107425 -0.00019471430277917534
6889000000.0 -2.8646496502915397e-05 -3.238119825255126e-05
6890000000.0 7.31525506125763e-05 1.1759642802644521e-05
6891000000.0 -5.636054993374273e-05 -0.00048063465510495007
6892000000.0 -0.0003339530958328396 -0.0007562487153336406
6893000000.0 -0.0007144688279367983 -0.0005086027085781097
6894000000.0 -0.0012949564261361957 3.3040378184523433e-05
6895000000.0 -0.0010523186065256596 0.0008264916832558811
6896000000.0 -0.0003907213103957474 0.0013100176583975554
6897000000.0 0.00026980278198607266 0.0013683970319107175
6898000000.0 0.001158578903414309 0.0011750063858926296
6899000000.0 0.0016574771143496037 0.0003828744520433247
6900000000.0 0.0017006649868562818 -0.0004375796706881374
6901000000.0 0.001141857705079019 -0.0011620864970609546
6902000000.0 0.0004903649678453803 -0.001717936946079135
6903000000.0 -0.0005542861181311309 -0.0017106124432757497
6904000000.0 -0.001324759447015822 -0.001076546381227672
6905000000.0 -0.0015937722055241466 -0.0004861000052187592
6906000000.0 -0.0019788662903010845 0.00018137214647140354
6907000000.0 -0.001614909153431654 0.0010761338053271174
6908000000.0 -0.0010287949116900563 0.0017756542656570673
6909000000.0 -5.564738330576802e-06 0.002196230925619602
6910000000.0 0.0011899708770215511 0.002049701986834407
6911000000.0 0.0022078861948102713 0.0014194207033142447
6912000000.0 0.0027203152421861887 0.00013974496687296778
6913000000.0 0.0027904179878532887 -0.0014467401197180152
6914000000.0 0.0019063224317505956 -0.0025438617449253798
6915000000.0 0.00016576269990764558 -0.003317287191748619
6916000000.0 -0.0017197870183736086 -0.0032012839801609516
6917000000.0 -0.0031726628076285124 -0.002015826292335987
6918000000.0 -0.003794757416471839 0.00019378810247872025
6919000000.0 -0.0031371270306408405 0.0019656496588140726
6920000000.0 -0.0016935388557612896 0.0032821467611938715
6921000000.0 0.0001813153940020129 0.0037859121803194284
6922000000.0 -0.0001360780152026564 0.002936397446319461
6923000000.0 0.0043902210891246796 0.000964410079177469
6924000000.0 0.0041817049495875835 -0.0003128685348201543
6925000000.0 0.003582330420613289 -0.0032334057614207268
6926000000.0 0.0016998853534460068 -0.00359931867569685
6927000000.0 -8.109379268717021e-05 -0.004072248470038176
6928000000.0 -0.0021259854547679424 -0.003752300515770912
6929000000.0 -0.0038972969632595778 -0.002249190816655755
6930000000.0 -0.004644586704671383 -0.00012567585508804768
6931000000.0 -0.004175333771854639 0.0024981098249554634
6932000000.0 -0.002378914039582014 0.004367099609225988
6933000000.0 0.00010798100265674293 0.005101173650473356
6934000000.0 0.0026869371067732573 0.004336419515311718
6935000000.0 0.005506853573024273 0.0019909562543034554
6936000000.0 0.005195248406380415 -0.00042619812302291393
6937000000.0 0.0040916455909609795 -0.0025833172257989645
6938000000.0 0.0020133911166340113 -0.004231833852827549
6939000000.0 -9.493099059909582e-05 -0.004695197567343712
6940000000.0 -0.002226523356512189 -0.00409660441800952
6941000000.0 -0.003946001175791025 -0.003657915396615863
6942000000.0 -0.004810280166566372 -0.0006515262648463249
6943000000.0 -0.004721607081592083 0.0014814903261139989
6944000000.0 -0.0034809785429388285 0.003812850685790181
6945000000.0 -0.0014125185552984476 0.00535612553358078
6946000000.0 0.0011226191418245435 0.005574368871748447
6947000000.0 0.003986647352576256 0.004635374993085861
6948000000.0 0.0057709733955562115 0.002330790041014552
6949000000.0 0.006617708597332239 -0.0006563463248312473
6950000000.0 0.005641508381813765 -0.0037538926117122173
6951000000.0 0.003715332131832838 -0.006508977618068457
6952000000.0 0.00028750294586643577 -0.007892812602221966
6953000000.0 -0.0036195130087435246 -0.007754806894809008
6954000000.0 -0.007905777543783188 -0.006001469679176807
6955000000.0 -0.011508535593748093 -0.0024746975395828485
6956000000.0 -0.015547375194728374 0.004461122211068869
6957000000.0 -0.016819989308714867 0.017915578559041023
6958000000.0 0.011762207373976707 0.04047790542244911
6959000000.0 0.04093767702579498 0.012699210084974766
6960000000.0 0.034960899502038956 -0.024240875616669655
6961000000.0 -0.01520658191293478 -0.03642528876662254
6962000000.0 -0.014427761547267437 -0.005571848712861538
6963000000.0 -0.009957323782145977 0.0011417204514145851
6964000000.0 -0.0061240047216415405 0.004002137575298548
6965000000.0 -0.003113633254542947 0.004953626077622175
6966000000.0 -0.0006868523196317255 0.004608428571373224
6967000000.0 0.0013590541202574968 0.003824591403827071
6968000000.0 0.0024164989590644836 0.0024479825515300035
6969000000.0 0.002604726003482938 0.0011033460032194853
6970000000.0 0.0023334333673119545 -2.6575020456220955e-05
6971000000.0 0.0016422390472143888 -0.0008264508796855807
6972000000.0 0.001298296032473445 -0.0012159970356151462
6973000000.0 0.0006224452517926693 -0.0012757942313328385
6974000000.0 8.148284541675821e-05 -0.0011080702533945441
6975000000.0 -0.00023203276214189827 -0.0010161222890019417
6976000000.0 -0.0003461323503870517 -0.0010830617975443602
6977000000.0 -0.0006918789586052299 -0.000854517100378871
6978000000.0 -0.0011269731912761927 -0.0008057127124629915
6979000000.0 -0.0014253273839130998 -0.0002602289605420083
6980000000.0 -0.0014939785469323397 0.0004479294875636697
6981000000.0 -0.0009251072769984603 0.0011516637168824673
6982000000.0 -0.0004894896992482245 0.0013069517444819212
6983000000.0 -5.310667984304018e-05 0.0014144097222015262
6984000000.0 0.0004643491702154279 0.0014504926512017846
6985000000.0 0.001088449964299798 0.0013059686170890927
6986000000.0 0.0015690410509705544 0.0008461619727313519
6987000000.0 0.002062956104055047 0.0002306432870682329
6988000000.0 0.0020883148536086082 -0.000962830672506243
6989000000.0 0.0018164353678002954 -0.001957911066710949
6990000000.0 0.0007214038050733507 -0.002787034260109067
6991000000.0 -0.0008865742711350322 -0.0031476968433707952
6992000000.0 -0.002615134697407484 -0.0024258806370198727
6993000000.0 -0.003772494150325656 -0.0010228360770270228
6994000000.0 -0.004071961622685194 0.0012040453730151057
6995000000.0 -0.0032609396148473024 0.003546713152900338
6996000000.0 -0.0017943385755643249 0.005087055265903473
6997000000.0 0.002186722122132778 0.005626870319247246
6998000000.0 0.005167072173207998 0.0034216674976050854
6999000000.0 0.006791912950575352 -0.0002710483968257904
7000000000.0 0.005375637672841549 -0.004170689731836319
