! Created with skrf 1.10.0 (http://scikit-rf.org).
# Hz S RI R 50.0 
!freq ReS11 ImS11
!
4000000000.0 0.0027327099815011024 0.0004110403242520988
4004000000.0 -0.0003328376915305853 -0.002873256104066968
4008000000.0 -0.0021931538358330727 0.0016642565606161952
4012000000.0 0.0024227811954915524 0.0014211017405614257
4016000000.0 0.00043109594844281673 -0.0026887920685112476
4020000000.0 -0.0028311542700976133 0.0006809577462263405
4024000000.0 0.0014431626768782735 0.0018251194851472974
4028000000.0 0.001381031353957951 -0.002038070932030678
4032000000.0 -0.0025692603085190058 -0.00046762137208133936
4036000000.0 0.0006352046621032059 0.00250268098898232
4040000000.0 0.0022254360374063253 -0.0012688058195635676
4044000000.0 -0.002084308071061969 -0.0016570397419854999
4048000000.0 -0.0008727594977244735 0.002575427060946822
4052000000.0 0.002782546216621995 -9.707651770440862e-05
4056000000.0 -0.0013645609142258763 -0.00226413831114769
4060000000.0 -0.0017246103379875422 0.0020917870569974184
4064000000.0 0.0026755111757665873 0.0008038435480557382
4068000000.0 -0.0002736419264692813 -0.0029006691183894873
4072000000.0 -0.002381436061114073 0.0012013306841254234
4076000000.0 0.0019023242639377713 0.001611522864550352
4080000000.0 0.0009541219915263355 -0.0026753402780741453
4084000000.0 -0.0026639150455594063 0.00047272592200897634
4088000000.0 0.0011992992367595434 0.0023977174423635006
4092000000.0 0.0015084039187058806 -0.0019587790593504906
4096000000.0 -0.002454461995512247 -0.0005620357114821672
4100000000.0 0.00031560141360387206 0.0021223241928964853
4104000000.0 0.00160493073053658 -0.0011554522207006812
4108000000.0 -0.0016075836028903723 -0.0010109427385032177
4112000000.0 -0.0005921199335716665 0.0018994280835613608
4116000000.0 0.001743332832120359 -5.83907931286376e-05
4120000000.0 -0.0005267496453598142 -0.0015989021630957723
4124000000.0 -0.0013604280538856983 0.0008784417877905071
4128000000.0 0.0014061910333111882 0.0009303822298534214
4132000000.0 0.00044251992949284613 -0.0015423470176756382
4136000000.0 -0.0014334595762193203 0.00014064279093872756
4140000000.0 0.00043993431609123945 0.0013751467922702432
4144000000.0 0.001284425612539053 -0.0008660396561026573
4148000000.0 -0.0014312551356852055 -0.001013604225590825
4152000000.0 -0.0007855932344682515 0.0017602930311113596
4156000000.0 0.001970582874491811 -0.00012343734852038324
4160000000.0 -0.0009797504171729088 -0.0016937056789174676
4164000000.0 -0.0014902765396982431 0.0016757043777033687
4168000000.0 0.002149447100237012 0.0008843842661008239
4172000000.0 3.753560667973943e-05 -0.0019580398220568895
4176000000.0 -0.002210812410339713 0.000852063880302012
4180000000.0 0.001440640538930893 0.0014793510781601071
4184000000.0 0.0010675995144993067 -0.0018722617533057928
4188000000.0 -0.0024144165217876434 -0.0002922132844105363
4192000000.0 0.0007071765139698982 0.0020622762385755777
4196000000.0 0.001799335703253746 -0.0012256655609235168
4200000000.0 -0.0017625807086005807 -0.0013781834859400988
4204000000.0 -0.0003998228639829904 0.002477694535627961
4208000000.0 0.002551428275182843 -0.00021065121109131724
4212000000.0 -0.0008324088412337005 -0.0023231436498463154
4216000000.0 -0.0016303964657709002 0.002007277449592948
4220000000.0 0.002324584638699889 0.0010222243145108223
4224000000.0 9.634866728447378e-05 -0.0026615976821631193
4228000000.0 -0.0027571336831897497 0.0012130832765251398
4232000000.0 0.00199229852296412 0.002228580182418227
4236000000.0 0.0012656922917813063 -0.002957529854029417
4240000000.0 -0.0031910124234855175 -3.943746196455322e-05
4244000000.0 0.0016364081529900432 0.003146311966702342
4248000000.0 0.0022164531983435154 -0.00263836863450706
4252000000.0 -0.0026248518843203783 -0.0010477066971361637
4256000000.0 0.00012196803436381742 0.003172009950503707
4260000000.0 0.0024247996043413877 -0.001183999702334404
4264000000.0 -0.0020538978278636932 -0.0016318757552653551
4268000000.0 -0.0007832076516933739 0.002746125217527151
4272000000.0 0.0024856417439877987 -3.299216405139305e-05
4276000000.0 -0.0007536517805419862 -0.0022692601196467876
4280000000.0 -0.0016148770228028297 0.0023107435554265976
4284000000.0 0.0022230572067201138 0.0009299370576627553
4288000000.0 -2.9104568966431543e-05 -0.0023427389096468687
4292000000.0 -0.0021871328353881836 0.0007298153941519558
4296000000.0 0.0015581381740048528 0.0019243016140535474
4300000000.0 0.00131627032533288 -0.001761995255947113
4304000000.0 -0.0019370020600035787 -0.0007604557322338223
4308000000.0 0.000563112844247371 0.002526987809687853
4312000000.0 0.0019792078528553247 -0.0009800468105822802
4316000000.0 -0.001474345801398158 -0.0013277723919600248
4320000000.0 -0.0009881315054371953 0.0018577417358756065
4324000000.0 0.002149854088202119 -0.00016212394984904677
4328000000.0 -0.0009164744988083839 -0.00217989063821733
4332000000.0 -0.0014938642270863056 0.0018436474492773414
4336000000.0 0.0017373824957758188 0.0009744933340698481
4340000000.0 0.00037949628313072026 -0.001638001878745854
4344000000.0 -0.0024554997216910124 0.000570346717722714
4348000000.0 0.0010150710586458445 0.001722813700325787
4352000000.0 0.0011897602817043662 -0.0019810039084404707
4356000000.0 -0.0017900659004226327 -0.0007270288770087063
4360000000.0 0.00025597988860681653 0.0023139959666877985
4364000000.0 0.001706470618955791 -0.0008951112977229059
4368000000.0 -0.001131043303757906 -0.001539632328785956
4372000000.0 -0.0010646969312801957 0.001757772290147841
4376000000.0 0.00209756544791162 0.00016194609634112567
4380000000.0 -0.0005717068561352789 -0.002037067897617817
4384000000.0 -0.0016677889507263899 0.0011708574602380395
4388000000.0 0.001962775131687522 0.0016106071416288614
4392000000.0 0.0006256120977923274 -0.0025210275780409575
4396000000.0 -0.002963746665045619 -3.890154039254412e-05
4400000000.0 0.0012458154233172536 0.0021493297535926104
4404000000.0 0.0017444710247218609 -0.0019926370587199926
4408000000.0 -0.0023523708805441856 -0.0009475527913309634
4412000000.0 0.0004757640417665243 0.0026630903594195843
4416000000.0 0.002208100399002433 -0.00127783406060189
4420000000.0 -0.001946043106727302 -0.0022881762124598026
4424000000.0 -0.00025618309155106544 0.002138567389920354
4428000000.0 0.002265513176098466 -0.00011305660154903308
4432000000.0 -0.0006441570003516972 -0.002034416887909174
4436000000.0 -0.0014363795053213835 0.0014455855125561357
4440000000.0 0.0019524950766935945 0.0006340954569168389
4444000000.0 -0.00022915021691005677 -0.0020092951599508524
4448000000.0 -0.0017083651619032025 0.00038223215960897505
4452000000.0 0.001237716292962432 0.0020162384025752544
4456000000.0 0.0012915158877149224 -0.0014713749988004565
4460000000.0 -0.002291369019076228 -0.0006909082876518369
4464000000.0 0.00032431003637611866 0.002455982379615307
4468000000.0 0.001921297749504447 -0.0012717264471575618
4472000000.0 -0.001911091967485845 -0.0015789942117407918
4476000000.0 -4.3010208173654974e-05 0.0023524374701082706
4480000000.0 0.0018417569808661938 -0.0011275082360953093
4484000000.0 -0.0015673651359975338 -0.002128488849848509
4488000000.0 -0.0009231608710251749 0.002050774870440364
4492000000.0 0.00212929118424654 0.0001830954715842381
4496000000.0 -0.0007184499991126359 -0.00194137345533818
4500000000.0 -0.001516418531537056 0.0008760137716308236
4504000000.0 0.0014596652472391725 0.0009897155687212944
4508000000.0 0.0004957427736371756 -0.0013393323170021176
4512000000.0 -0.001170350587926805 0.0005128076882101595
4516000000.0 0.000987725448794663 0.0015462202718481421
4520000000.0 0.0011759760091081262 -0.0010289023630321026
4524000000.0 -0.0015867319889366627 -0.0005971151986159384
4528000000.0 -0.0003263561811763793 0.001382932299748063
4532000000.0 0.0010893355356529355 -0.00010573746840236709
4536000000.0 -0.0008195238187909126 -0.0010092289885506034
4540000000.0 -0.0007194099598564208 0.0010503589874133468
4544000000.0 0.0012090083910152316 0.00017684063641354442
4548000000.0 -0.0001773515687091276 -0.0012294485932216048
4552000000.0 -0.0016683407593518496 0.0006852304795756936
4556000000.0 0.000988991349004209 0.0011183576425537467
4560000000.0 0.00044448577682487667 -0.0012632057769224048
4564000000.0 -0.001596301794052124 -7.489451672881842e-05
4568000000.0 0.0004922299995087087 0.00180245959199965
4572000000.0 0.0015053056413307786 -0.001225834945216775
4576000000.0 -0.0017956721130758524 -0.0010073499288409948
4580000000.0 -0.00014700350584462285 0.0018651792779564857
4584000000.0 0.0019161629024893045 -0.0009323697886429727
4588000000.0 -0.0010222793789580464 -0.0014166936744004488
4592000000.0 -0.0010815963614732027 0.0017438937211409211
4596000000.0 0.0015645077219232917 -1.9493085346766748e-05
4600000000.0 -0.0005302459467202425 -0.00174322712700814
4604000000.0 -0.0016164397820830345 0.0011890603927895427
4608000000.0 0.0019131433218717575 0.0010565788252279162
4612000000.0 0.00027995137497782707 -0.002021180000156164
4616000000.0 -0.00182239874266088 0.0006434889510273933
4620000000.0 0.0011928852181881666 0.0016534171300008893
4624000000.0 0.0010447873501107097 -0.001525171916000545
4628000000.0 -0.002114588860422373 -0.0003851558140013367
4632000000.0 0.00020835932809859514 0.0021713748574256897
4636000000.0 0.0018394319340586662 -0.0009496540878899395
4640000000.0 -0.001877911388874054 -0.0010060493368655443
4644000000.0 -0.0006682327366434038 0.0020118250977247953
4648000000.0 0.0025408656802028418 -0.00042583458707667887
4652000000.0 -0.0011521450942382216 -0.0021198538597673178
4656000000.0 -0.0012877120170742273 0.0023801757488399744
4660000000.0 0.0022872041445225477 0.000560074404347688
4664000000.0 -0.0005118290428072214 -0.0026009620632976294
4668000000.0 -0.0017926295986399055 0.00128327333368361
4672000000.0 0.0017370646819472313 0.0013473732396960258
4676000000.0 0.00040379600250162184 -0.0018094308907166123
4680000000.0 -0.001993246376514435 0.0004468109691515565
4684000000.0 0.0011064341524615884 0.0014049969613552094
4688000000.0 0.0009369576582685113 -0.0015612192219123244
4692000000.0 -0.001767606008797884 -0.0004294919781386852
4696000000.0 8.082311251200736e-05 0.0017698591109365225
4700000000.0 0.0016996405320242047 -0.0004994206828996539
4704000000.0 -0.0012426686007529497 -0.0014631034573540092
4708000000.0 -0.0007082608062773943 0.001646361779421568
4712000000.0 0.0018989259842783213 0.0002672219416126609
4716000000.0 -0.0005475921207107604 -0.0015867953188717365
4720000000.0 -0.0016706088790670037 0.0011853137984871864
4724000000.0 0.0017451103776693344 0.0007213295320980251
4728000000.0 0.0001949233264895156 -0.0014722804771736264
4732000000.0 -0.0015590429538860917 0.0006173239089548588
4736000000.0 0.001117043779231608 0.0015198709443211555
4740000000.0 0.0007987496792338789 -0.0012926483759656549
4744000000.0 -0.0015476301778107882 -0.0005380609072744846
4748000000.0 1.9211668131902115e-06 0.0017562469001859426
4752000000.0 0.0015463933814316988 -0.000635766249615699
4756000000.0 -0.0007923575467430055 -0.0011323486687615514
4760000000.0 -0.0007149923476390541 0.0015848317416384816
4764000000.0 0.001591313281096518 0.00042937631951645017
4768000000.0 1.8027240002993494e-05 -0.0016960817156359553
4772000000.0 -0.0018065860494971275 0.0010663722641766071
4776000000.0 0.0012635440798476338 0.0011364296078681946
4780000000.0 0.0005804544780403376 -0.0015985044883564115
4784000000.0 -0.00167326838709414 -5.8417288528289646e-05
4788000000.0 0.0007470654090866446 0.0019864451605826616
4792000000.0 0.0014506984734907746 -0.00167868344578892
4796000000.0 -0.0018231467111036181 -0.0007864110521040857
4800000000.0 -0.0001244484883500263 0.001990875694900751
4804000000.0 0.002063230611383915 -0.0008223704644478858
4808000000.0 -0.0012999011669307947 -0.0015188377583399415
4812000000.0 -0.0013467089738696814 0.002019470790401101
4816000000.0 0.002151747466996312 0.0004313384124543518
4820000000.0 -0.0005232164403423667 -0.0020631614606827497
4824000000.0 -0.0019937939941883087 0.001337390043772757
4828000000.0 0.0019121876684948802 0.0011574666714295745
4832000000.0 0.0005253204726614058 -0.002156607573851943
4836000000.0 -0.002263236790895462 0.0001398579333908856
4840000000.0 0.0011983379954472184 0.0018988962983712554
4844000000.0 0.0014206765918061137 -0.0019191419705748558
4848000000.0 -0.0023335248697549105 -0.0005122697912156582
4852000000.0 0.00033702582004480064 0.0025213619228452444
4856000000.0 0.002207305049523711 -0.0012500068405643106
4860000000.0 -0.0018665058305487037 -0.0013787526404485106
4864000000.0 -0.0005634603439830244 0.0021542045287787914
4868000000.0 0.00212111696600914 -0.0005254686111584306
4872000000.0 -0.0013043873477727175 -0.001778038335032761
4876000000.0 -0.0012628220720216632 0.0018987641669809818
4880000000.0 0.0020197024568915367 0.00043122857459820807
4884000000.0 -0.0004375743737909943 -0.002114200731739402
4888000000.0 -0.0015202367212623358 0.0013557523488998413
4892000000.0 0.0017409754218533635 0.0008358717313967645
4896000000.0 0.000609411858022213 -0.001667178701609373
4900000000.0 -0.0015743296826258302 0.00018014636589214206
4904000000.0 0.0005336271715350449 0.0009471028461121023
4908000000.0 0.0007806846988387406 -0.0011759548215195537
4912000000.0 -0.0012219935888424516 -0.0006920568412169814
4916000000.0 -4.9535079597262666e-05 0.0012278909562155604
4920000000.0 0.0013890760019421577 -0.0002341241779504344
4924000000.0 -0.0006783687858842313 -0.0009845619788393378
4928000000.0 -0.000646325817797333 0.0008275739965029061
4932000000.0 0.0011928749736398458 0.0006154084112495184
4936000000.0 8.117184188449755e-05 -0.0011908605229109526
4940000000.0 -0.001248509855940938 0.00023689852969255298
4944000000.0 0.000605476729106158 0.001067219884134829
4948000000.0 0.0007592538604512811 -0.0010328225325793028
4952000000.0 -0.0013129551662132144 -0.0005236655124463141
4956000000.0 1.585504287504591e-05 0.0014412256423383951
4960000000.0 0.0013531974982470274 -0.0005505561712197959
4964000000.0 -0.0009574831929057837 -0.001064159325323999
4968000000.0 -0.0007522595697082579 0.001312852487899363
4972000000.0 0.0015378132229670882 0.00015928070934023708
4976000000.0 -0.0005236739525571465 -0.0015400378033518791
4980000000.0 -0.0011526441667228937 0.0012348624877631664
4984000000.0 0.001490281312726438 0.000771807215642184
4988000000.0 0.0002259281900478527 -0.0017148093320429325
4992000000.0 -0.0014615061227232218 0.000397806114051491
4996000000.0 0.0010662769200280309 0.0011997666442766786
5000000000.0 0.0009943260811269283 -0.0014265786157920957
5004000000.0 -0.0018301842501387 -0.00037837427225895226
5008000000.0 0.0003907740756403655 0.0019011417170986533
5012000000.0 0.001257891533896327 -0.0011296988232061267
5016000000.0 -0.0012932389508932829 -0.0010929590789601207
5020000000.0 -0.00036377584910951555 0.0019267266616225243
5024000000.0 0.0018420349806547165 -0.00028132571605965495
5028000000.0 -0.0009406032622791827 -0.001758853206411004
5032000000.0 -0.0009695717599242926 0.0014039903180673718
5036000000.0 0.001796353724785149 0.0004375105199869722
5040000000.0 -0.00036354377516545355 -0.002041546395048499
5044000000.0 -0.0015836297534406185 0.0012328304583206773
5048000000.0 0.0018146941438317299 0.0008950589108280838
5052000000.0 0.0002899613173212856 -0.00191304471809417
5056000000.0 -0.0018654169980436563 0.000559663341846317
5060000000.0 0.0016220416873693466 0.001249922439455986
5064000000.0 0.000684932922013104 -0.0017661676974967122
5068000000.0 -0.001719148363918066 -0.0002897321537602693
5072000000.0 0.00028495205333456397 0.0014516903320327401
5076000000.0 0.0013915639137849212 -0.0010871535632759333
5080000000.0 -0.0012840398121625185 -0.0009210705175064504
5084000000.0 -0.0002926748711615801 0.0007971068844199181
5088000000.0 0.0010747314663603902 -0.00030007935129106045
5092000000.0 -0.0005581413279287517 -0.001123800640925765
5096000000.0 -0.0007177175139077008 0.0011254051933065057
5100000000.0 0.0014154731761664152 9.2417532869149e-05
5104000000.0 -0.00010767651838250458 -0.001574756228365004
5108000000.0 -0.0013777227140963078 0.00025283568538725376
5112000000.0 0.0010310807265341282 0.0011248616501688957
5116000000.0 0.000749159196857363 -0.0012922249734401703
5120000000.0 -0.0017764773219823837 -9.317686817666981e-06
5124000000.0 0.00036350873415358365 0.0010321002919226885
5128000000.0 0.0012583009665831923 -0.0007044549565762281
5132000000.0 -0.0010213634232059121 -0.0008508787723258138
5136000000.0 -0.0002118675474775955 0.001156374579295516
5140000000.0 0.001164437853731215 -0.00031304798903875053
5144000000.0 -0.0008864483097568154 -0.0010317839914932847
5148000000.0 -0.000847413728479296 0.0011227773502469063
5152000000.0 0.001127035589888692 0.0006278459914028645
5156000000.0 0.00011599653953453526 -0.001167720416560769
5160000000.0 -0.0011201174929738045 0.0008017219370231032
5164000000.0 0.0008040635730139911 0.001191771705634892
5168000000.0 0.0007359383162111044 -0.0010734829120337963
5172000000.0 -0.0015268571441993117 -0.0002273858990520239
5176000000.0 0.0004043535445816815 0.0015218749176710844
5180000000.0 0.0012505435151979327 -0.0006196057656779885
5184000000.0 -0.0012433279771357775 -0.0007449046242982149
5188000000.0 -0.00011853183241328225 0.0015851069474592805
5192000000.0 0.0015495921252295375 -0.0002016326761804521
5196000000.0 -0.0010985539993271232 -0.0012816613307222724
5200000000.0 -0.0010426227236166596 0.0012778100790455937
5204000000.0 0.0013459011679515243 0.00037663691909983754
5208000000.0 6.472164386650547e-05 -0.001781100989319384
5212000000.0 -0.0013357953866943717 0.0006757910596206784
5216000000.0 0.001146639115177095 0.0014708969974890351
5220000000.0 0.0009002921869978309 -0.0016517115291208029
5224000000.0 -0.0021799099631607533 -0.0001275221729883924
5228000000.0 0.0005917039234191179 0.0018239098135381937
5232000000.0 0.001625902485102415 -0.0014210959197953343
5236000000.0 -0.0016205006977543235 -0.0009692502208054066
5240000000.0 -0.0003519748570397496 0.0021594290155917406
5244000000.0 0.0017635364783927798 -0.0006223019445315003
5248000000.0 -0.001117829466238618 -0.0013602733379229903
5252000000.0 -0.0010783355683088303 0.0017522794660180807
5256000000.0 0.00200656452216208 0.00015553798584733158
5260000000.0 -0.00044061170774511993 -0.0020269460510462523
5264000000.0 -0.0016149086877703667 0.0010934100719168782
5268000000.0 0.0017634661635383964 0.0009646734688431025
5272000000.0 0.00042976581607945263 -0.002005514921620488
5276000000.0 -0.002038276521489024 0.0002791032602544874
5280000000.0 0.0008997665136121213 0.0016424839850515127
5284000000.0 0.0008298986940644681 -0.0014571244828402996
5288000000.0 -0.0017831986770033836 -0.00040346093010157347
5292000000.0 0.0004206818121019751 0.0015856110258027911
5296000000.0 0.0016319624846801162 -0.000858767656609416
5300000000.0 -0.0015384032158181071 -0.0009816359961405396
5304000000.0 -0.00039432902121916413 0.0014815381728112698
5308000000.0 0.0015129578532651067 -0.00022145063849166036
5312000000.0 -0.000523239083122462 -0.0013050056295469403
5316000000.0 -0.001089688972570002 0.0010716230608522892
5320000000.0 0.0012784736463800073 0.0007566680433228612
5324000000.0 0.0001724646135699004 -0.001261739176698029
5328000000.0 -0.001313342829234898 0.00016633578343316913
5332000000.0 0.000781840062700212 0.0011849106522276998
5336000000.0 0.0008747349493205547 -0.0008136240649037063
5340000000.0 -0.0012593921273946762 -0.0006311031174845994
5344000000.0 -4.793616244569421e-05 0.0013240294065326452
5348000000.0 0.0013855579309165478 -0.00039662737981416285
5352000000.0 -0.0008017169311642647 -0.0010337199782952666
5356000000.0 -0.0008383669191971421 0.0011313266586512327
5360000000.0 0.0014171022921800613 0.000335963093675673
5364000000.0 3.8080594094935805e-05 -0.0016717613907530904
5368000000.0 -0.001240476849488914 0.0008133468800224364
5372000000.0 0.0010536202462390065 0.0011349867563694715
5376000000.0 0.0005376780754886568 -0.0014342464273795485
5380000000.0 -0.0015357210068032146 1.5881299987086095e-05
5384000000.0 0.0005167709896340966 0.001314895343966782
5388000000.0 0.0011135044042021036 -0.001026819460093975
5392000000.0 -0.0015457533299922943 -0.0008621871820650995
5396000000.0 -0.0003070915990974754 0.001565215177834034
5400000000.0 0.001497914781793952 -0.0005291115958243608
5404000000.0 -0.0008955407538451254 -0.0015263722743839025
5408000000.0 -0.0008827844285406172 0.001298891264013946
5412000000.0 0.0017412010347470641 0.00043137214379385114
5416000000.0 -0.0003031725937034935 -0.001723483088426292
5420000000.0 -0.0014044404961168766 0.0008609310607425869
5424000000.0 0.0012909561628475785 0.0010455321753397584
5428000000.0 0.0005322180804796517 -0.0016978944186121225
5432000000.0 -0.0015964687336236238 0.00022708080359734595
5436000000.0 0.0007283944869413972 0.0014000447699800134
5440000000.0 0.0012597943423315883 -0.0012779977405443788
5444000000.0 -0.0016189190791919827 -0.0007089893915690482
5448000000.0 9.297588803747203e-06 0.0018452679505571723
5452000000.0 0.001457285019569099 -0.0007544033578597009
5456000000.0 -0.001194517477415502 -0.001020111725665629
5460000000.0 -0.0005381847149692476 0.0015922652091830969
5464000000.0 0.0016087684780359268 -0.0001934332394739613
5468000000.0 -0.0009868824854493141 -0.0013210977194830775
5472000000.0 -0.001001831260509789 0.0012137694284319878
5476000000.0 0.0013426296645775437 0.0004985789419151843
5480000000.0 -0.00012085044727427885 -0.00129599345382303
5484000000.0 -0.001054112333804369 0.0006055065896362066
5488000000.0 0.000811912352219224 0.0007878243923187256
5492000000.0 0.0004798412846866995 -0.0007926906691864133
5496000000.0 -0.0012132928241044283 -0.0001893452717922628
5500000000.0 0.00017334586300421506 0.0012192295398563147
5504000000.0 0.0010745126055553555 -0.0004979097284376621
5508000000.0 -0.0007509257993660867 -0.0007952043088153005
5512000000.0 -0.0003925101482309401 0.0011152334045618773
5516000000.0 0.0012156650191172957 -0.00016185101412702352
5520000000.0 -0.00037058605812489986 -0.0012083706678822637
5524000000.0 -0.000822618545498699 0.0007509209681302309
5528000000.0 0.0010749229695647955 0.0006218389025889337
5532000000.0 0.00024254478921648115 -0.0012504174374043941
5536000000.0 -0.0011621419107541442 0.0004432830901350826
5540000000.0 0.0005997192929498851 0.0010285795433446765
5544000000.0 0.0005806680419482291 -0.0010936042526736856
5548000000.0 -0.0011337142204865813 -0.0003460071748122573
5552000000.0 0.0003152108984068036 0.0011015866184607148
5556000000.0 0.0009984784992411733 -0.0006776090594939888
5560000000.0 -0.0009069289662875235 -0.0005619377479888499
5564000000.0 -0.0003731683536898345 0.0009996526641771197
5568000000.0 0.0010671168565750122 2.8472473786678165e-05
5572000000.0 -0.0005051392945460975 -0.0010549357393756509
5576000000.0 -0.0006665747496299446 0.000871434633154422
5580000000.0 0.00094022968551144 0.00037240819074213505
5584000000.0 7.987757271621376e-05 -0.001138497842475772
5588000000.0 -0.0010538510978221893 0.0004194432694930583
5592000000.0 0.0008566589676775038 0.0006884231115691364
5596000000.0 0.0006068371003493667 -0.0009653705637902021
5600000000.0 -0.0010331629309803247 -0.00010507142724236473
5604000000.0 0.0005615940317511559 0.001027589081786573
5608000000.0 0.0007720753783360124 -0.0005649594822898507
5612000000.0 -0.0007885197992436588 -0.00048376969061791897
5616000000.0 -0.0004050450515933335 0.0011030832538381219
5620000000.0 0.001097312429919839 -9.65691651799716e-05
5624000000.0 -0.0009172668214887381 -0.0011535269441083074
5628000000.0 -0.0007123472751118243 0.0010023326613008976
5632000000.0 0.0011338950134813786 0.00023496207722928375
5636000000.0 -6.355284858727828e-05 -0.0012264352990314364
5640000000.0 -0.0008817742927931249 0.0006090658134780824
5644000000.0 0.0010951235890388489 0.000852036289870739
5648000000.0 0.0001966415293281898 -0.0008073706412687898
5652000000.0 -0.0012940934393554926 7.674471999052912e-05
5656000000.0 0.0008309141849167645 0.00102827453520149
5660000000.0 0.0005730195553041995 -0.0008255434222519398
5664000000.0 -0.0008121262071654201 -0.0003912794345524162
5668000000.0 0.00016985819092951715 0.0010556208435446024
5672000000.0 0.0010406279470771551 -0.0002880742831621319
5676000000.0 -0.000754315871745348 -0.0008176244446076453
5680000000.0 -0.0004229905316606164 0.0008525504963472486
5684000000.0 0.001266885083168745 0.00028016712167300284
5688000000.0 -0.0002963392762467265 -0.0012726417044177651
5692000000.0 -0.0008721209014765918 0.000623314525000751
5696000000.0 0.0010519648203626275 0.0007290021749213338
5700000000.0 0.00023093180789146572 -0.001285281148739159
5704000000.0 -0.0010233172215521336 0.0003756839723791927
5708000000.0 0.0007139764493331313 0.0007019896293058991
5712000000.0 0.0005825635162182152 -0.0008626629714854062
5716000000.0 -0.0010872066486626863 -0.0003651183214969933
5720000000.0 -4.328338400227949e-05 0.0009715496562421322
5724000000.0 0.0008129614870995283 -0.00032970437314361334
5728000000.0 -0.0005976838292554021 -0.0005322278011590242
5732000000.0 -0.0004535023181233555 0.0011300656478852034
5736000000.0 0.000859687221236527 0.0001016071837511845
5740000000.0 -0.0002946465974673629 -0.0010389523813501
5744000000.0 -0.0007041370845399797 0.0006364316795952618
5748000000.0 0.0007386505021713674 0.00047607082524336874
5752000000.0 -9.414498344995081e-05 -0.000948012457229197
5756000000.0 -0.0009693813044577837 0.00034410564694553614
5760000000.0 0.0003835450916085392 0.00074330362258479
5764000000.0 0.0005275539006106555 -0.0007352624088525772
5768000000.0 -0.0012310800375416875 -0.0004665907472372055
5772000000.0 4.426147643243894e-05 0.001284932834096253
5776000000.0 0.0011396576883271337 -0.0004057575133629143
5780000000.0 -0.0006612149882130325 -0.0010953955352306366
5784000000.0 -0.0004890110576525331 0.0010363932233303785
5788000000.0 0.0012839091941714287 -2.3141625206335448e-05
5792000000.0 -0.0003185461973771453 -0.0009932274697348475
5796000000.0 -0.0010261470451951027 0.00044384048669598997
5800000000.0 0.0007685531745664775 0.0006123473285697401
5804000000.0 0.0003178745391778648 -0.0013052624417468905
5808000000.0 -0.001317487214691937 -2.5096358513110317e-05
5812000000.0 0.0005160146974958479 0.0011600346770137548
5816000000.0 0.0006210793508216739 -0.0008251494145952165
5820000000.0 -0.0013540758518502116 -0.00050844851648435
5824000000.0 -0.00020324296201579273 0.001253894530236721
5828000000.0 0.0012146139051765203 -0.00032792790443636477
5832000000.0 -0.0009877266129478812 -0.0009218321065418422
5836000000.0 -0.0006353334756568074 0.0009339620592072606
5840000000.0 0.0012884713942185044 0.00039876007940620184
5844000000.0 -0.0004835556901525706 -0.0011256682919338346
5848000000.0 -0.0010497873881831765 0.0006725150160491467
5852000000.0 0.0006912136450409889 0.000892585376277566
5856000000.0 0.00045372240128926933 -0.00117044011130929
5860000000.0 -0.0014496543444693089 -0.0001691401848802343
5864000000.0 0.0006588991964235902 0.0009585163788869977
5868000000.0 0.0010053185978904366 -0.001154743367806077
5872000000.0 -0.0012515847338363528 -0.0007153709302656353
5876000000.0 0.00013707749894820154 0.001250166562385857
5880000000.0 0.0011917497031390667 -0.00038389384280890226
5884000000.0 -0.0008490660693496466 -0.0008608999196439981
5888000000.0 -0.0005373853491619229 0.0009298301301896572
5892000000.0 0.001285037025809288 -2.255008257634472e-05
5896000000.0 0.00010017402382800356 -0.0011937315575778484
5900000000.0 -0.0009646639809943736 0.0007830783142708242
5904000000.0 0.0009352783672511578 0.0005021936376579106
5908000000.0 0.0001878607872640714 -0.0011634302791208029
5912000000.0 -0.0011932384222745895 0.00018283879035152495
5916000000.0 0.000805887917522341 0.00113950006198138
5920000000.0 0.0009405991295352578 -0.0007569601875729859
5924000000.0 -0.001299841795116663 -0.0002771725703496486
5928000000.0 7.311112130992115e-05 0.0013578920625150204
5932000000.0 0.0011497032828629017 -0.0007682887953706086
5936000000.0 -0.0009022775338962674 -0.0007640276453457773
5940000000.0 -0.0004928305861540139 0.0009829767514020205
5944000000.0 0.0011531573254615068 1.2485228580771945e-05
5948000000.0 -0.00034926197258755565 -0.0009945001220330596
5952000000.0 -0.0008542461437173188 0.0006910536321811378
5956000000.0 0.0008012342150323093 0.0008592222584411502
5960000000.0 0.0003994622966274619 -0.0009189840056933463
5964000000.0 -0.0011499827960506082 0.00020791863789781928
5968000000.0 0.00010025245137512684 0.001106791663914919
5972000000.0 0.000830897712148726 -0.0005557229742407799
5976000000.0 -0.0009135176660493016 -0.0006600066553801298
5980000000.0 -0.0001549388252897188 0.0011352711590006948
5984000000.0 0.0011099015828222036 -0.0004554206389002502
5988000000.0 -0.0007718047709204257 -0.0009753947961144149
5992000000.0 -0.0008495236979797482 0.0010674477089196444
5996000000.0 0.0013894019648432732 9.83410791377537e-05
6000000000.0 -0.00022951880237087607 -0.0012450675712898374
6004000000.0 -0.0008833230822347105 0.0006576009327545762
6008000000.0 0.0007984264520928264 0.0008094158256426454
6012000000.0 0.0002617623540572822 -0.0012163453502580523
6016000000.0 -0.0009689207072369754 0.00010402854240965098
6020000000.0 0.0007265927852131426 0.0009725698619149625
6024000000.0 0.0009020036668516695 -0.0009884315077215433
6028000000.0 -0.001207574037835002 -0.00019125784456264228
6032000000.0 0.00010171218309551477 0.0013379808515310287
6036000000.0 0.0010333913378417492 -0.0006306442082859576
6040000000.0 -0.0010186397703364491 -0.0006887836498208344
6044000000.0 -0.0005592242814600468 0.0010804233606904745
6048000000.0 0.001063366187736392 -0.000133573601488024
6052000000.0 -0.0003253572795074433 -0.0010055974125862122
6056000000.0 -0.0005197605350986123 0.0007053635199554265
6060000000.0 0.0008553378283977509 0.00041205761954188347
6064000000.0 0.00019253959180787206 -0.0009093488333746791
6068000000.0 -0.0010713667143136263 0.0003204454842489213
6072000000.0 0.000430515588959679 0.0009408064070157707
6076000000.0 0.0007868944085203111 -0.0009465893963351846
6080000000.0 -0.0009634334128350019 -0.0005728081450797617
6084000000.0 0.00017013109754770994 0.0011420160299167037
6088000000.0 0.0010778015712276101 -0.0004267851763870567
6092000000.0 -0.0009357559611089528 -0.0007131423917599022
6096000000.0 -0.0006048550130799413 0.0010969374561682343
6100000000.0 0.0014268186641857028 0.00016263748693745583
6104000000.0 -0.0006352177588269114 -0.0015373538481071591
6108000000.0 -0.0010104394750669599 0.001143750036135316
6112000000.0 0.0014123489381745458 0.0002958397672045976
6116000000.0 -0.0001652082719374448 -0.0014254528796300292
6120000000.0 -0.0010395362041890621 0.0006832646322436631
6124000000.0 0.0012817630777135491 0.00046132804709486663
6128000000.0 0.0005612206878140569 -0.0013241800479590893
6132000000.0 -0.0012793682981282473 2.5577373889973387e-05
6136000000.0 0.0005953835207037628 0.0010012690909206867
6140000000.0 0.0006693069590255618 -0.0010034691076725721
6144000000.0 -0.001362803508527577 -0.00037671849713660777
6148000000.0 -8.790181709628087e-06 0.0012706294655799866
6152000000.0 0.0008760243654251099 -0.0004634553624782711
6156000000.0 -0.0009199405903927982 -0.0006799516850151122
6160000000.0 -0.00046212744200602174 0.0009084905032068491
6164000000.0 0.0010081423679366708 0.0002739236515481025
6168000000.0 -0.0003187396505381912 -0.0013385000638663769
6172000000.0 -0.0010985294356942177 0.0004838663153350353
6176000000.0 0.0010179686360061169 0.0007894039736129344
6180000000.0 0.00037710811011493206 -0.001225134590640664
6184000000.0 -0.0014815456233918667 0.0002740506606642157
6188000000.0 0.0005678381421603262 0.0016573425382375717
6192000000.0 0.0010037599131464958 -0.0007401295588351786
6196000000.0 -0.0013555458281189203 -0.0008466545259580016
6200000000.0 -0.00011197504500159994 0.00181296793743968
6204000000.0 0.001593780587427318 -0.0006085671484470367
6208000000.0 -0.0014279985334724188 -0.0013480372726917267
6212000000.0 -0.0006151862908154726 0.001851595239713788
6216000000.0 0.001941729336977005 -0.00019687338499352336
6220000000.0 -0.0008477032533846796 -0.001527708489447832
6224000000.0 -0.0010825854260474443 0.001167359296232462
6228000000.0 0.0016048199031502008 0.0003445656329859048
6232000000.0 -0.0001002390417852439 -0.0014733527787029743
6236000000.0 -0.001526130479760468 0.000820304499939084
6240000000.0 0.001256656600162387 0.0009921601740643382
6244000000.0 0.0004937382764182985 -0.0012044497998431325
6248000000.0 -0.0011861297534778714 -8.467873703921214e-05
6252000000.0 0.0004067164263688028 0.0014696267899125814
6256000000.0 0.0012484415201470256 -0.0008507648017257452
6260000000.0 -0.001064253505319357 -0.0007329624495469034
6264000000.0 -0.00048636432620696723 0.0014985150191932917
6268000000.0 0.0015050157671794295 -0.00025587741401977837
6272000000.0 -0.0006919920560903847 -0.0013880080077797174
6276000000.0 -0.0010707296896725893 0.0008831699378788471
6280000000.0 0.0014929684111848474 0.0005592587986029685
6284000000.0 0.00015179590263869613 -0.0015270198928192258
6288000000.0 -0.0017718073213472962 0.0007245790911838412
6292000000.0 0.0010428782552480698 0.0014436827041208744
6296000000.0 0.000821869820356369 -0.0015659760683774948
6300000000.0 -0.0019493050640448928 -0.0003646447148639709
6304000000.0 0.0006895682890899479 0.002077503828331828
6308000000.0 0.001725542126223445 -0.0012017862172797322
6312000000.0 -0.0017929093446582556 -0.0011701922630891204
6316000000.0 -0.0002695924194995314 0.0020672192331403494
6320000000.0 0.0021581570617854595 -0.0007659232942387462
6324000000.0 -0.0016332915984094143 -0.0016804459737613797
6328000000.0 -0.0008425060659646988 0.0024170230608433485
6332000000.0 0.0023373677395284176 3.378305700607598e-05
6336000000.0 -0.0012990741524845362 -0.0019853475969284773
6340000000.0 -0.0014103002613410354 0.0018234284361824393
6344000000.0 0.0018336146604269743 0.0004370861279312521
6348000000.0 -0.0003931182436645031 -0.0019951590802520514
6352000000.0 -0.0014218715950846672 0.000819930515717715
6356000000.0 0.0013065625680610538 0.0010683739092200994
6360000000.0 0.0007516691111959517 -0.0015966125065460801
6364000000.0 -0.0016791095258668065 -0.00024694090825505555
6368000000.0 0.00026737668667919934 0.0014593710657209158
6372000000.0 0.0010501265060156584 -0.0008834267500787973
6376000000.0 -0.001466716406866908 -0.0009366489830426872
6380000000.0 -0.000421521021053195 0.001543272053822875
6384000000.0 0.0015049740904942155 -0.00015866673493292183
6388000000.0 -0.0008280202746391296 -0.0014718023594468832
6392000000.0 -0.0011402365053072572 0.00132924341596663
6396000000.0 0.0016546477563679218 0.0003944058553315699
6400000000.0 -1.2612797945621423e-05 -0.001811593770980835
6404000000.0 -0.0018146601505577564 0.0006690711015835404
6408000000.0 0.001378257991746068 0.0014144540764391422
6412000000.0 0.0006054005934856832 -0.0017087943851947784
6416000000.0 -0.0021460140123963356 0.0002012038166867569
6420000000.0 0.0010381551692262292 0.001500961952842772
6424000000.0 0.00127519725356251 -0.0013824632624164224
6428000000.0 -0.001780148595571518 -0.0004330800729803741
6432000000.0 0.00031331280479207635 0.0019563331734389067
6436000000.0 0.0014727191301062703 -0.0008999697747640312
6440000000.0 -0.0017521919216960669 -0.0009682490490376949
6444000000.0 -0.0001409755932400003 0.0016600530361756682
6448000000.0 0.0016052376013249159 -0.0006141107878647745
6452000000.0 -0.000984100392088294 -0.0008904521819204092
6456000000.0 -0.0005237509612925351 0.0014068213058635592
6460000000.0 0.0014693770790472627 2.75569582299795e-05
6464000000.0 -0.00035311668762005866 -0.0013730482896789908
6468000000.0 -0.0010682123247534037 0.0007332451641559601
6472000000.0 0.0011404927354305983 0.0007759120780974627
6476000000.0 0.0002435720816720277 -0.0014687899965792894
6480000000.0 -0.0014050296740606427 3.300155731267296e-05
6484000000.0 0.0005672909901477396 0.0013565424596890807
6488000000.0 0.001027289079502225 -0.0009870853973552585
6492000000.0 -0.0015659310156479478 -0.00035116670187562704
6496000000.0 0.00019572681048884988 0.0015367717714980245
6500000000.0 0.0013074135640636086 -0.0007515927427448332
6504000000.0 -0.0013217097148299217 -0.0007166859577409923
6508000000.0 -0.00031279417453333735 0.001515485462732613
6512000000.0 0.00146902643609792 -0.0004418733005877584
6516000000.0 -0.0009771960321813822 -0.0011421111412346363
6520000000.0 -0.0005897615919820964 0.0011996886460110545
6524000000.0 0.0016324833268299699 0.00016856615548022091
6528000000.0 -0.0007205710280686617 -0.0014189423527568579
6532000000.0 -0.0010186766739934683 0.0011130156926810741
6536000000.0 0.001516561722382903 0.0005662347539328039
6540000000.0 -0.0001276097318623215 -0.0013921144418418407
6544000000.0 -0.0013370533706620336 0.0009572688722983003
6548000000.0 0.0013638959499076009 0.0007587459404021502
6552000000.0 0.0003504787164274603 -0.0013645258732140064
6556000000.0 -0.0013453554129227996 0.0006824175943620503
6560000000.0 0.0008809699211269617 0.0009769961470738053
6564000000.0 0.0004719844146165997 -0.0009751091711223125
6568000000.0 -0.0011642399476841092 -6.420060526579618e-05
6572000000.0 0.00026843082741834223 0.0010639887768775225
6576000000.0 0.0006634275778196752 -0.0005673561245203018
6580000000.0 -0.000994743313640356 -0.0005382962990552187
6584000000.0 -0.00018762900435831398 0.0009150409023277462
6588000000.0 0.001257972908206284 -0.00017513007333036512
6592000000.0 -0.0006748208543285728 -0.0008606854826211929
6596000000.0 -0.0007005247753113508 0.001028582570143044
6600000000.0 0.0012573626590892673 0.00025147374253720045
6604000000.0 -0.0003156807797495276 -0.001209025620482862
6608000000.0 -0.0007086223340593278 0.0007666726014576852
6612000000.0 0.0009079324081540108 0.0005530415219254792
6616000000.0 -0.0001530040754005313 -0.001134962309151888
6620000000.0 -0.0010300081921741366 0.0006604585214518011
6624000000.0 0.0011129456106573343 0.0009979401947930455
6628000000.0 0.00044539564987644553 -0.0010262239957228303
6632000000.0 -0.0013841430190950632 0.000252111058216542
6636000000.0 0.0007173207704909146 0.000906006433069706
6640000000.0 0.00030720606446266174 -0.0009940036106854677
6644000000.0 -0.00119253050070256 -7.884110527811572e-05
6648000000.0 0.0002500409900676459 0.0010715831303969026
6652000000.0 0.0009367527673020959 -0.0004811706312466413
6656000000.0 -0.0007501179352402687 -0.0005696954904124141
6660000000.0 -0.00039498330443166196 0.0009840886341407895
6664000000.0 0.0007846878143027425 -0.00014457337965723127
6668000000.0 -0.0005081432173028588 -0.0009854786330834031
6672000000.0 -0.0006341604748740792 0.0010906752431765199
6676000000.0 0.0010433216812089086 4.600451575242914e-07
6680000000.0 -0.0003823839651886374 -0.0009998860768973827
6684000000.0 -0.00043440493755042553 0.000543859729077667
6688000000.0 0.0010297736153006554 0.00029523950070142746
6692000000.0 6.808616308262572e-05 -0.001022879732772708
6696000000.0 -0.0007910728454589844 0.0005135542596690357
6700000000.0 0.0006374344229698181 0.000883262197021395
6704000000.0 0.00024924275930970907 -0.0010756333358585835
6708000000.0 -0.0007116947672329843 0.00033607639488764107
6712000000.0 0.0006261254311539233 0.0009600955527275801
6716000000.0 0.00048334323219023645 -0.0010043351212516427
6720000000.0 -0.0011541141429916024 0.0002824869006872177
6724000000.0 0.00046792280045337975 0.0006469368818216026
6728000000.0 0.0011779074557125568 -0.0007675412343814969
6732000000.0 -0.0008297888562083244 -0.0004596534708980471
6736000000.0 -0.00014653590915258974 0.0011529051698744297
6740000000.0 0.0010597050422802567 -0.00015218643238767982
6744000000.0 -0.0008436327916570008 -0.0009491663658991456
6748000000.0 -0.0006391876377165318 0.0015405265148729086
6752000000.0 0.0017832745797932148 -8.557554247090593e-05
6756000000.0 -0.0011059902608394623 -0.0012668779818341136
6760000000.0 -0.0006987910601310432 0.0015304136322811246
6764000000.0 0.001633797655813396 -0.0005378067144192755
6768000000.0 -0.0010173867922276258 -0.0012041798327118158
6772000000.0 -0.0006998626049607992 0.0011745147639885545
6776000000.0 0.0013399010058492422 0.0002761938376352191
6780000000.0 -8.933154458645731e-05 -0.0015290621668100357
6784000000.0 -0.0013605221174657345 0.0008315218728967011
6788000000.0 0.0012987725203856826 0.0009140128386206925
6792000000.0 0.00032997908419929445 -0.0013801159802824259
6796000000.0 -0.001258589792996645 0.0003894846886396408
6800000000.0 0.000720979820471257 0.001219296595081687
6804000000.0 0.0006922474130988121 -0.0011745658703148365
6808000000.0 -0.0014498254749923944 -0.00012582505587488413
6812000000.0 0.00039240592741407454 0.0015972900437191129
6816000000.0 0.0009299198281951249 -0.0006941632018424571
6820000000.0 -0.0011874184710904956 -0.0011717717861756682
6824000000.0 -0.000570577394682914 0.0016139650251716375
6828000000.0 0.0014052358455955982 -0.0003726835420820862
6832000000.0 -0.0006890889490023255 -0.0014379272470250726
6836000000.0 -0.0012628998374566436 0.0014111773343756795
6840000000.0 0.00175386480987072 0.0006071922834962606
6844000000.0 -0.00010253868094878271 -0.0022734464146196842
6848000000.0 -0.002038212725892663 0.0008192381937988102
6852000000.0 0.002187072765082121 0.0011912238551303744
6856000000.0 -0.00010998472134815529 -0.0023881420493125916
6860000000.0 -0.0021639917977154255 0.0007120406371541321
6864000000.0 0.0013615350471809506 0.0015466011827811599
6868000000.0 0.0011792886070907116 -0.0016795924166217446
6872000000.0 -0.0018712314777076244 3.7991430872352794e-05
6876000000.0 0.0004367775109130889 0.0015106875216588378
6880000000.0 0.001415349543094635 -0.0010591051541268826
6884000000.0 -0.0013871410628780723 -0.0012549053644761443
6888000000.0 -0.000761304865591228 0.001427882700227201
6892000000.0 0.002022707834839821 -0.0002794892352540046
6896000000.0 -0.0005764529923908412 -0.0016110078431665897
6900000000.0 -0.0018853757064789534 0.0010162444086745381
6904000000.0 0.0019529120763763785 0.0013717046240344644
6908000000.0 0.00029334326973184943 -0.0028085915837436914
6912000000.0 -0.00308722211048007 0.0010181445395573974
6916000000.0 0.002390810288488865 0.0023756511509418488
6920000000.0 0.0005004158592782915 -0.0031448090448975563
6924000000.0 -0.0025339603889733553 0.0008166780462488532
6928000000.0 0.0014299671165645123 0.0017495120409876108
6932000000.0 0.0013251916971057653 -0.0017297107260674238
6936000000.0 -0.002210678532719612 -0.0007536258781328797
6940000000.0 -1.7466330973547883e-05 0.002344097476452589
6944000000.0 0.0023559362161904573 -0.0010154856136068702
6948000000.0 -0.0016617635264992714 -0.001728981384076178
6952000000.0 -0.0009448889759369195 0.0023404662497341633
6956000000.0 0.0026300903409719467 0.00021731053129769862
6960000000.0 -0.0009979130700230598 -0.002251061610877514
6964000000.0 -0.0017198123969137669 0.0013734223321080208
6968000000.0 0.002075939206406474 0.0008398308418691158
6972000000.0 -0.0001624125288799405 -0.002011730568483472
6976000000.0 -0.0017126951133832335 0.00040218254434876144
6980000000.0 0.0012862198054790497 0.0011761303758248687
6984000000.0 0.0009493526304140687 -0.0016767313936725259
6988000000.0 -0.001553477835841477 -0.0008657098514959216
6992000000.0 8.268865349236876e-05 0.0018191719427704811
6996000000.0 0.0018704429967328906 -0.0006555430591106415
7000000000.0 -0.0010465005179867148 -0.0017152978107333183
7004000000.0 -0.0013008189853280783 0.0013863854110240936
7008000000.0 0.0018987691728398204 0.0008851187885738909
7012000000.0 0.0001940856163855642 -0.0024369447492063046
7016000000.0 -0.0027275376487523317 0.0010115121258422732
7020000000.0 0.002327557420358062 0.002617880003526807
7024000000.0 0.0012579381000250578 -0.0033670663833618164
7028000000.0 -0.004211608786135912 0.000603863038122654
7032000000.0 0.003097916254773736 0.0033874455839395523
7036000000.0 0.001210060785524547 -0.0038734753616154194
7040000000.0 -0.0037619229406118393 0.0007640704279765487
7044000000.0 0.0016017892630770802 0.002656409051269293
7048000000.0 0.0016778672579675913 -0.0018779003294184804
7052000000.0 -0.002447187900543213 -0.0008387861889787018
7056000000.0 -0.0002260437759105116 0.002699491335079074
7060000000.0 0.002791955601423979 -0.0009547496447339654
7064000000.0 -0.0018585332436487079 -0.002798625035211444
7068000000.0 -0.0019171155290678144 0.0033933594822883606
7072000000.0 0.003840855322778225 0.00024712312733754516
7076000000.0 -0.0023688441142439842 -0.0036686391104012728
7080000000.0 -0.0020672485698014498 0.003804773325100541
7084000000.0 0.0037357218097895384 -4.460825948626734e-05
7088000000.0 -0.0010753631358966231 -0.002911127870902419
7092000000.0 -0.001461870619095862 0.0017497967928647995
7096000000.0 0.0019375232513993979 0.0011656227288767695
7100000000.0 0.0005790239665657282 -0.0017474278574809432
7104000000.0 -0.0023176129907369614 0.00011088539031334221
7108000000.0 0.0005965856835246086 0.0019761163275688887
7112000000.0 0.0018750479212030768 -0.0011887780856341124
7116000000.0 -0.0017841645749285817 -0.001429090742021799
7120000000.0 -0.001008350751362741 0.002350064693018794
7124000000.0 0.0027544049080461264 0.00020155178208369762
7128000000.0 -0.0011264152126386762 -0.0029773542191833258
7132000000.0 -0.002241186797618866 0.0028934760484844446
7136000000.0 0.00367048685438931 0.0006639367784373462
7140000000.0 -0.0016480336198583245 -0.0027513722889125347
7144000000.0 -0.0012410572962835431 0.002328010043129325
7148000000.0 0.002132349880412221 0.0014258410083130002
7152000000.0 0.0006531079998239875 -0.002373611321672797
7156000000.0 -0.0023392755538225174 -0.00017229473451152444
7160000000.0 0.0007682669092901051 0.0021822629496455193
7164000000.0 0.001917053246870637 -0.0015814671060070395
7168000000.0 -0.0020960569381713867 -0.0013169680023565888
7172000000.0 -0.0003534067946020514 0.003081176895648241
7176000000.0 0.0034521862398833036 -0.0007836836739443243
7180000000.0 -0.002005881629884243 -0.0028233418706804514
7184000000.0 -0.0016819245647639036 0.0032399953342974186
7188000000.0 0.003898174036294222 0.0005381687078624964
7192000000.0 -0.0014242710312828422 -0.004402404185384512
7196000000.0 -0.0032593293581157923 0.003411311889067292
7200000000.0 0.004280716180801392 0.001095471321605146
7204000000.0 -0.0007976491469889879 -0.0038292696699500084
7208000000.0 -0.0035510899033397436 0.0020663803443312645
7212000000.0 0.003152423771098256 0.002395667601376772
7216000000.0 0.0010012625716626644 -0.003163842251524329
7220000000.0 -0.003798409830778837 9.386722376802936e-05
7224000000.0 0.0015198610490188003 0.003328975522890687
7228000000.0 0.0027556512504816055 -0.0025415855925530195
7232000000.0 -0.0036151919048279524 -0.001997540006414056
7236000000.0 -0.0006675905897282064 0.005028247833251953
7240000000.0 0.005247899331152439 -0.00225565442815423
7244000000.0 -0.005012310575693846 -0.0034518823958933353
7248000000.0 -6.31733491900377e-05 0.0057558175176382065
7252000000.0 0.004600783344358206 -0.002746782498434186
7256000000.0 -0.0032290969975292683 -0.00259418785572052
7260000000.0 -0.0009459972498007119 0.0029518650844693184
7264000000.0 0.0029962968546897173 -0.0002632804389577359
7268000000.0 -0.000687607447616756 -0.0023324715439230204
7272000000.0 -0.0018815677613019943 0.0015371621120721102
7276000000.0 0.0020110614132136106 0.0017217283602803946
7280000000.0 0.0016560328658670187 -0.002239268971607089
7284000000.0 -0.0030335700139403343 -0.000580832187552005
7288000000.0 0.0005750231794081628 0.0030877210665494204
7292000000.0 0.003035274799913168 -0.0017200063448399305
7296000000.0 -0.003745041321963072 -0.002310468116775155
7300000000.0 0.0004170975589659065 0.00427375640720129
7304000000.0 0.002610689727589488 -0.003039439907297492
7308000000.0 -0.0028915235307067633 -0.0009373879875056446
7312000000.0 -0.0010733375092968345 0.0017706824000924826
7316000000.0 0.0021131779067218304 0.0005881424294784665
7320000000.0 0.0008024798589758575 -0.002444893354550004
7324000000.0 -0.002515057334676385 0.0009818901307880878
7328000000.0 0.0014878668589517474 0.0023690522648394108
7332000000.0 0.0015593881253153086 -0.002313442062586546
7336000000.0 -0.0034528905525803566 -0.0007137527572922409
7340000000.0 0.00024934348766691983 0.0035347789525985718
7344000000.0 0.003428833093494177 -0.0016191824106499553
7348000000.0 -0.0034721188712865114 -0.002574248006567359
7352000000.0 -0.0011252667754888535 0.004861247725784779
7356000000.0 0.005132252350449562 -0.001937634195201099
7360000000.0 -0.003318452276289463 -0.002814193721860647
7364000000.0 -0.0012351075420156121 0.003937442786991596
7368000000.0 0.0042897299863398075 -0.0002390314039075747
7372000000.0 -0.0015057828277349472 -0.0036398707889020443
7376000000.0 -0.00306734093464911 0.002546987496316433
7380000000.0 0.0029386677779257298 0.001455799676477909
7384000000.0 0.0002163738536182791 -0.0033493805676698685
7388000000.0 -0.0031291497871279716 0.0005563957965932786
7392000000.0 0.0011686880607157946 0.002263374160975218
7396000000.0 0.0028469536919146776 -0.002290468430146575
7400000000.0 -0.002928507514297962 -0.0013887055683881044
7404000000.0 -0.0007279131095856428 0.0038178428076207638
7408000000.0 0.004326635971665382 -0.0005607226048596203
7412000000.0 -0.003209067974239588 -0.0044027166441082954
7416000000.0 -0.0020881269592791796 0.0055570583790540695
7420000000.0 0.005282008554786444 -0.0010379469022154808
7424000000.0 -0.003251253394410014 -0.0035796959418803453
7428000000.0 -0.0016904546646401286 0.004372086841613054
7432000000.0 0.0030586468055844307 -0.0007067115511745214
7436000000.0 -0.0008267194498330355 -0.0023637316189706326
7440000000.0 -0.002495483262464404 0.0012356778606772423
7444000000.0 0.0017830082215368748 0.0017624043393880129
7448000000.0 0.001460245461203158 -0.0018862212309613824
7452000000.0 -0.002575935795903206 -0.0008409820147790015
7456000000.0 -0.00011706844088621438 0.0031423172913491726
7460000000.0 0.0032696626149117947 -0.0009248856222257018
7464000000.0 -0.0024420637637376785 -0.003075971966609359
7468000000.0 -0.0016744283493608236 0.003995231352746487
7472000000.0 0.004190309438854456 0.0005842807586304843
7476000000.0 -0.0018507186323404312 -0.004619539249688387
7480000000.0 -0.003196470905095339 0.0034800737630575895
7484000000.0 0.005087034776806831 0.0012438429985195398
7488000000.0 -0.0010306721087545156 -0.004877274855971336
7492000000.0 -0.0035491168964654207 0.0028146342374384403
7496000000.0 0.0037109183613210917 0.002061613602563739
7500000000.0 0.0004809425736311823 -0.003657120745629072
7504000000.0 -0.003899012226611376 0.0005927719175815582
7508000000.0 0.002595030702650547 0.003330410923808813
7512000000.0 0.0013411777326837182 -0.0033735795877873898
7516000000.0 -0.0026103034615516663 -0.00010369132360210642
7520000000.0 -0.00018244000966660678 0.0031664324924349785
7524000000.0 0.0032325657084584236 -0.001313729677349329
7528000000.0 -0.0024258967023342848 -0.002649762434884906
7532000000.0 -0.001620444585569203 0.0029304753988981247
7536000000.0 0.0031506503000855446 0.00029965449357405305
7540000000.0 -0.0007338820141740143 -0.003064630553126335
7544000000.0 -0.0029394705779850483 0.0015370623441413045
7548000000.0 0.0027293446473777294 0.001959482440724969
7552000000.0 0.0006255893968045712 -0.0029327641241252422
7556000000.0 -0.0029574932996183634 6.309856689767912e-05
7560000000.0 0.0009635603055357933 0.0032874178141355515
7564000000.0 0.0035344120115041733 -0.0020157592371106148
7568000000.0 -0.004976856056600809 -0.003324258141219616
7572000000.0 2.417549694655463e-05 0.006803309079259634
7576000000.0 0.006559300236403942 -0.0045951297506690025
7580000000.0 -0.0073174480348825455 -0.002115388633683324
7584000000.0 0.002414846792817116 0.00712768267840147
7588000000.0 0.0028517378959804773 -0.005004147067666054
7592000000.0 -0.00431358115747571 -0.0005168828647583723
7596000000.0 0.0004940583021380007 0.0036449104081839323
7600000000.0 0.002504186239093542 -0.0014099645195528865
7604000000.0 -0.0020012306049466133 -0.0019583827815949917
7608000000.0 -0.0013028051471337676 0.0023376159369945526
7612000000.0 0.00240874569863081 0.0003608033584896475
7616000000.0 -0.0003601053322199732 -0.002046310342848301
7620000000.0 -0.002395588904619217 0.001010479754768312
7624000000.0 0.001608453574590385 0.0021371280308812857
7628000000.0 0.001998821273446083 -0.002434653230011463
7632000000.0 -0.0027810176834464073 -0.0009694216423667967
7636000000.0 0.00033634781721048057 0.003038774011656642
7640000000.0 0.0030077421106398106 -0.0017499362584203482
7644000000.0 -0.0031524724327027798 -0.0023911157622933388
7648000000.0 -0.0011651638196781278 0.0038677151314914227
7652000000.0 0.00395969208329916 -0.0008544463780708611
7656000000.0 -0.0026889957953244448 -0.0034009311348199844
7660000000.0 -0.0019240808906033635 0.0033047825563699007
7664000000.0 0.0037662198301404715 0.0001536196650704369
7668000000.0 -0.0004494512395467609 -0.0032933212351053953
7672000000.0 -0.003243042854592204 0.0017939975950866938
7676000000.0 0.002721228636801243 0.0028583905659615993
7680000000.0 0.0016075588064268231 -0.0033606525976210833
7684000000.0 -0.0036642334889620543 -8.523944416083395e-05
7688000000.0 0.0009334913338534534 0.0036753853783011436
7692000000.0 0.003851571585983038 -0.002612889977172017
7696000000.0 -0.00396694103255868 -0.003045787336304784
7700000000.0 -0.0014674578560516238 0.006290009245276451
7704000000.0 0.007006088737398386 -0.0017770814010873437
7708000000.0 -0.005788144189864397 -0.005480925086885691
7712000000.0 -0.0017709130188450217 0.008523278869688511
7716000000.0 0.008156436495482922 -0.002672984264791012
7720000000.0 -0.006393707823008299 -0.005356172099709511
7724000000.0 -0.001562403398565948 0.00762182055041194
7728000000.0 0.006735593546181917 -0.0019788499921560287
7732000000.0 -0.004148367326706648 -0.004737808834761381
7736000000.0 -0.0018799169920384884 0.004966035019606352
7740000000.0 0.005069699604064226 -5.7930988987209275e-05
7744000000.0 -0.0015194726875051856 -0.004252703860402107
7748000000.0 -0.003322336357086897 0.002137858886271715
7752000000.0 0.0028300078120082617 0.002227531047537923
7756000000.0 0.0010467641986906528 -0.0032622739672660828
7760000000.0 -0.0037235973868519068 0.00017704450874589384
7764000000.0 0.0007804075721651316 0.0034571171272546053
7768000000.0 0.0032820890191942453 -0.0009120820905081928
7772000000.0 -0.0019587494898587465 -0.001903342199511826
7776000000.0 -0.0016506265383213758 0.0031075794249773026
7780000000.0 0.003898706054314971 0.00022694286599289626
7784000000.0 -0.000980519806034863 -0.003374294377863407
7788000000.0 -0.0032687783241271973 0.0018232549773529172
7792000000.0 0.0015631394926458597 0.003434463171288371
7796000000.0 0.0053801992908120155 -0.004396822303533554
7800000000.0 -0.011487297713756561 -0.0015747135039418936
7804000000.0 0.008583400398492813 0.008623323403298855
7808000000.0 -0.0003437662380747497 -0.010836142115294933
7812000000.0 -0.007513204123824835 0.00477529875934124
7816000000.0 0.005484882276505232 0.004421851597726345
7820000000.0 0.0017744196811690927 -0.006227585952728987
7824000000.0 -0.0059629762545228004 0.0007874614675529301
7828000000.0 0.002478387439623475 0.0037390533834695816
7832000000.0 0.002604428678750992 -0.003177024656906724
7836000000.0 -0.003198281629011035 -0.0018941037124022841
7840000000.0 -0.0008206556085497141 0.0029937708750367165
7844000000.0 0.003148298244923353 0.0007807948277331889
7848000000.0 -0.0006404967280104756 -0.003442980581894517
7852000000.0 -0.0035973316989839077 0.0015209100674837828
7856000000.0 0.003236814634874463 0.003667023964226246
7860000000.0 0.0030178576707839966 -0.005222776904702187
7864000000.0 -0.008239018730819225 -0.0004851756675634533
7868000000.0 0.006005328614264727 0.0073030320927500725
7872000000.0 0.0014395066536962986 -0.007472446653991938
7876000000.0 -0.005642679985612631 0.0023579364642500877
7880000000.0 0.003456456121057272 0.004127200227230787
7884000000.0 0.0021038735285401344 -0.004834838677197695
7888000000.0 -0.003953499253839254 -0.000709383690264076
7892000000.0 0.000458305497886613 0.0031278447713702917
7896000000.0 0.0028312248177826405 -0.0008667194051668048
7900000000.0 -0.0020803832449018955 -0.002881646389141679
7904000000.0 -0.0022713197395205498 0.002362797735258937
7908000000.0 0.003222893225029111 0.001797955483198166
7912000000.0 0.001066806260496378 -0.004660507198423147
7916000000.0 -0.004730751272290945 0.0007722607697360218
7920000000.0 0.0030959455762058496 0.004582000896334648
7924000000.0 0.0030234053265303373 -0.005245498847216368
7928000000.0 -0.0067719826474785805 0.00044362054904922843
7932000000.0 0.0017729842802509665 0.005340964067727327
7936000000.0 0.0051741935312747955 -0.004115937743335962
7940000000.0 -0.005533376708626747 -0.0028898478485643864
7944000000.0 -0.0010325830662623048 0.0060258726589381695
7948000000.0 0.006124031729996204 -0.0009740049135871232
7952000000.0 -0.003119628643617034 -0.005884575191885233
7956000000.0 -0.0056868079118430614 0.00697100767865777
7960000000.0 0.011457557789981365 0.0034037844743579626
7964000000.0 -0.00830456055700779 -0.013946864753961563
7968000000.0 -0.0001019773626467213 0.016058798879384995
7972000000.0 0.007299073040485382 -0.006637881975620985
7976000000.0 -0.005297095514833927 -0.002052396535873413
7980000000.0 -0.0006999165052548051 0.004439771641045809
7984000000.0 0.0037249834276735783 0.00016823895566631109
7988000000.0 -0.000810498371720314 -0.0030898654367774725
7992000000.0 -0.003171284217387438 0.0016352456295862794
7996000000.0 0.002431301400065422 0.001927669276483357
8000000000.0 0.00264248950406909 -0.0023235375992953777
