! Created with skrf 1.10.0 (http://scikit-rf.org).
# Hz S RI R 50.0 
!freq ReS11 ImS11
!
6000000000.0 0.0006329062744043767 0.000968493870459497
6001000000.0 0.0009196358150802553 0.0006668780697509646
6002000000.0 0.0012346988078206778 -1.1178826753166504e-06
6003000000.0 0.001266391365788877 -0.0005629784427583218
6004000000.0 0.0006504998891614377 -0.0010223654098808765
6005000000.0 0.00015009945491328835 -0.0011117535177618265
6006000000.0 -0.0005399565561674535 -0.0012005084427073598
6007000000.0 -0.0010506456019356847 -0.0007351185195147991
6008000000.0 -0.001007142593152821 -0.00021716630726587027
6009000000.0 -0.0010785114718601108 0.00038728132494725287
6010000000.0 -0.0008485675789415836 0.0008211859385482967
6011000000.0 -0.00028533718432299793 0.001196756842546165
6012000000.0 0.000256444385740906 0.0009848348563537002
6013000000.0 0.0007696966640651226 0.0008370728464797139
6014000000.0 0.0008709998219273984 0.0005637986469082534
6015000000.0 0.0010512341978028417 -9.090032108360901e-05
6016000000.0 0.0008349780109710991 -0.0005306443781591952
6017000000.0 0.0003587326209526509 -0.0009041730663739145
6018000000.0 -5.32924423168879e-05 -0.0011010195594280958
6019000000.0 -0.000477025838335976 -0.0009063005563803017
6020000000.0 -0.0009745642892085016 -0.000531073019374162
6021000000.0 -0.0009331023902632296 -9.032536763697863e-05
6022000000.0 -0.0009096036083064973 0.00021741865202784538
6023000000.0 -0.0005654835258610547 0.0006366262678056955
6024000000.0 -0.0003242377715650946 0.000865767418872565
6025000000.0 0.0003296089998912066 0.000886723748408258
6026000000.0 0.0004929249407723546 0.0007342323660850525
6027000000.0 0.0007269440102390945 0.00036981524317525327
6028000000.0 0.0008874401682987809 -1.0264782758895308e-05
6029000000.0 0.0007913212175481021 -0.00041028400301001966
6030000000.0 0.00046830737846903503 -0.0007552592433057725
6031000000.0 5.02046023029834e-05 -0.001028768252581358
6032000000.0 -0.00043902386096306145 -0.0008983766310848296
6033000000.0 -0.0006967539084143937 -0.0004480250645428896
6034000000.0 -0.0009523805929347873 -0.00020638617570511997
6035000000.0 -0.0008369669667445123 0.0002561773872002959
6036000000.0 -0.0005641145980916917 0.0005206818459555507
6037000000.0 -0.0003119145694654435 0.0007258743280544877
6038000000.0 0.00014893311890773475 0.0008420064696110785
6039000000.0 0.0005569616332650185 0.0007020843913778663
6040000000.0 0.0008101328276097775 0.000469246762804687
6041000000.0 0.0009314181515946984 -0.00011873975745402277
6042000000.0 0.0008387176203541458 -0.0005168560892343521
6043000000.0 0.0003811730712186545 -0.0006568862008862197
6044000000.0 5.564409730141051e-05 -0.0009033376700244844
6045000000.0 -0.0003096358850598335 -0.0008529159240424633
6046000000.0 -0.0007296517724171281 -0.0006019669817760587
6047000000.0 -0.000779671361669898 -0.00016157998470589519
6048000000.0 -0.0007475530146621168 0.00014859841030556709
6049000000.0 -0.0006625674432143569 0.0005593411042355001
6050000000.0 -0.0003670307050924748 0.0007285161409527063
6051000000.0 6.772863707737997e-05 0.0007837318116798997
6052000000.0 0.00044293381506577134 0.0008312597637996078
6053000000.0 0.0006658561760559678 0.0004521690134424716
6054000000.0 0.0009469488868489861 -4.727644409285858e-05
6055000000.0 0.0008145185420289636 -0.00046266624121926725
6056000000.0 0.0005965461023151875 -0.0006920208688825369
6057000000.0 0.00026394359883852303 -0.0009648487321101129
6058000000.0 -0.00033526236074976623 -0.0009248065180145204
6059000000.0 -0.0006678128847852349 -0.0006958508165553212
6060000000.0 -0.0009504198096692562 -0.00030341799720190465
6061000000.0 -0.0009330677567049861 0.00019301583233755082
6062000000.0 -0.0008244480122812092 0.0005573268281295896
6063000000.0 -0.00040630053263157606 0.000894982716999948
6064000000.0 5.981554932077415e-05 0.0010516744805499911
6065000000.0 0.0006163943326100707 0.0008871317259036005
6066000000.0 0.0008301946218125522 0.00047817223821766675
6067000000.0 0.0009143275674432516 0.00015110541426111013
6068000000.0 0.0008982194121927023 -0.0004603510315064341
6069000000.0 0.0006388667970895767 -0.000713743211235851
6070000000.0 0.0001722788147162646 -0.0008984902524389327
6071000000.0 -0.00037055276334285736 -0.0009451652294956148
6072000000.0 -0.0008838138310238719 -0.0007276288815774024
6073000000.0 -0.0011086551239714026 -0.00022057819296605885
6074000000.0 -0.000801560003310442 0.0003488203219603747
6075000000.0 -0.0008208892541006207 0.0006128240493126214
6076000000.0 -0.0002173288812628016 0.001017097383737564
6077000000.0 9.849090565694496e-05 0.0011578205740079284
6078000000.0 0.0006017261766828597 0.0008600343717262149
6079000000.0 0.000977513031102717 0.00022866803919896483
6080000000.0 0.001009613391943276 -0.0001779066660674289
6081000000.0 0.0007260528509505093 -0.0005195500561967492
6082000000.0 0.0007170010358095169 -0.0008875938365235925
6083000000.0 4.9118018068838865e-05 -0.0010122299427166581
6084000000.0 -0.00040148472180590034 -0.0008012417238205671
6085000000.0 -0.0008333292207680643 -0.0006924315239302814
6086000000.0 -0.0011370280990377069 -0.00012779350799974054
6087000000.0 -0.0010089229326695204 0.0002287878014612943
6088000000.0 -0.0006387287867255509 0.0007219191174954176
6089000000.0 -0.00020263316400814801 0.0009389964397996664
6090000000.0 0.00012585011427290738 0.0010868861572816968
6091000000.0 0.0005628428771160543 0.0007805291679687798
6092000000.0 0.0010815700516104698 0.0003483080945443362
6093000000.0 0.0011632302775979042 -0.00010814712732098997
6094000000.0 0.0008608550415374339 -0.0005253545241430402
6095000000.0 0.0005376107292249799 -0.0007637400995008647
6096000000.0 -0.00014982731954660267 -0.0012023472227156162
6097000000.0 -0.0006822638679295778 -0.0009347580489702523
6098000000.0 -0.0008179185097105801 -0.0003973516868427396
6099000000.0 -0.0010437630116939545 -5.163591140444623e-06
6100000000.0 -0.0007195292273536325 0.00041039229836314917
6101000000.0 -0.0005454019410535693 0.0009406284661963582
6102000000.0 -0.00025244709104299545 0.0010505840182304382
6103000000.0 0.00020237965509295464 0.0009133372805081308
6104000000.0 0.0008994939853437245 0.0007570583838969469
6105000000.0 0.0008137624245136976 0.00023328958195634186
6106000000.0 0.0008006514399312437 -8.95744888111949e-05
6107000000.0 0.0008165964391082525 -0.0005795276956632733
6108000000.0 0.00031679743551649153 -0.0008778674528002739
6109000000.0 -0.00016929401317611337 -0.0009511748794466257
6110000000.0 -0.0005320708150975406 -0.0008967674802988768
6111000000.0 -0.0008836262859404087 -0.0005698231398127973
6112000000.0 -0.0011620839359238744 -0.00015114179404918104
6113000000.0 -0.0010527682024985552 0.00038360856706276536
6114000000.0 -0.00046359541011042893 0.0008019466185942292
6115000000.0 -0.0001037652837112546 0.0008749999105930328
6116000000.0 0.0005071511841379106 0.0010016284650191665
6117000000.0 0.000979284173808992 0.0009360146359540522
6118000000.0 0.0009147649398073554 0.00019030604744330049
6119000000.0 0.0012492145178839564 -0.0003231054579373449
6120000000.0 0.0006461634184233844 -0.0006780059775337577
6121000000.0 0.0004971305606886744 -0.0010260118870064616
6122000000.0 -0.00016275624511763453 -0.0010671964846551418
6123000000.0 -0.0005591322551481426 -0.0009727019350975752
6124000000.0 -0.0011460821842774749 -0.0006623076624237001
6125000000.0 -0.0011167784687131643 -0.0001437802129657939
6126000000.0 -0.0009902984602376819 0.0005693196435458958
6127000000.0 -0.0004633741918951273 0.0009017805568873882
6128000000.0 -0.0001354602281935513 0.0010551924351602793
6129000000.0 0.0006100616883486509 0.0011724295327439904
6130000000.0 0.0009134761057794094 0.0005590990767814219
6131000000.0 0.0011525986483320594 0.00014482408005278558
6132000000.0 0.0011251032119616866 -0.0002969518245663494
6133000000.0 0.0005602888413704932 -0.000996469403617084
6134000000.0 0.0002937319513875991 -0.0013526201946660876
6135000000.0 -0.0003862475568894297 -0.0013598725199699402
6136000000.0 -0.0006034292746335268 -0.0009328441810794175
6137000000.0 -0.0011655184207484126 -0.0003955322608817369
6138000000.0 -0.001188161433674395 0.0003473527613095939
6139000000.0 -0.0008597844280302525 0.000753737345803529
6140000000.0 -0.00036532949889078736 0.0009154954459518194
6141000000.0 1.429027906851843e-05 0.0012874292442575097
6142000000.0 0.0004183183773420751 0.0008601641748100519
6143000000.0 0.001022659009322524 0.0004078188503626734
6144000000.0 0.001192245283164084 2.9634966267622076e-05
6145000000.0 0.0009909274522215128 -0.0005157000850886106
6146000000.0 0.0006500614690594375 -0.0009833520743995905
6147000000.0 0.00023175572277978063 -0.0008966769091784954
6148000000.0 -0.00026582900318317115 -0.000904361077118665
6149000000.0 -0.0008336187456734478 -0.0006314471247605979
6150000000.0 -0.0010158753721043468 -0.00016579413204453886
6151000000.0 -0.0008804614190012217 0.00028101421776227653
6152000000.0 -0.0009763668640516698 0.0007268364424817264
6153000000.0 -0.0005259050521999598 0.000987017760053277
6154000000.0 0.00018115989223588258 0.001018575974740088
6155000000.0 0.0007831626571714878 0.0008529340848326683
6156000000.0 0.0009129816899076104 0.0004972844617441297
6157000000.0 0.0010715287644416094 0.00014905480202287436
6158000000.0 0.0007802545442245901 -0.0005356044857762754
6159000000.0 0.0005822884268127382 -0.0010112849995493889
6160000000.0 2.5115716198342852e-05 -0.0011047134175896645
6161000000.0 -0.00048335109022445977 -0.0011677545262500644
6162000000.0 -0.0007877126336097717 -0.0007521097431890666
6163000000.0 -0.0010053985752165318 -0.00024411790946032852
6164000000.0 -0.00098331063054502 0.0004438955511432141
6165000000.0 -0.0008838209905661643 0.000811237667221576
6166000000.0 -0.00033980197622440755 0.0010197698138654232
6167000000.0 3.3966243790928274e-05 0.0011310746194794774
6168000000.0 0.0007862601196393371 0.000973693560808897
6169000000.0 0.0010019787587225437 0.0004186222795397043
6170000000.0 0.0009700928931124508 1.2981147847312968e-05
6171000000.0 0.0007978070061653852 -0.0003338371461723
6172000000.0 0.000562506087590009 -0.0010251596104353666
6173000000.0 5.8654823078541085e-05 -0.0008782733930274844
6174000000.0 -0.0004368119116406888 -0.0010320863220840693
6175000000.0 -0.0008328644908033311 -0.000783193449024111
6176000000.0 -0.0011359959607943892 -0.0003522732004057616
6177000000.0 -0.0009662341908551753 0.00013778972788713872
6178000000.0 -0.000656537595205009 0.0006138100288808346
6179000000.0 -0.00030439338297583163 0.0008817875641398132
6180000000.0 3.8462232623714954e-05 0.0011726097436621785
6181000000.0 0.0004704497114289552 0.0008384854299947619
6182000000.0 0.0009296555072069168 0.000525586016010493
6183000000.0 0.0009982007322832942 9.153428254649043e-05
6184000000.0 0.0009660997893661261 -0.0005579977878369391
6185000000.0 0.0006134923314675689 -0.001024118741042912
6186000000.0 8.914427598938346e-05 -0.0009727587457746267
6187000000.0 -0.00026598043041303754 -0.0011375924805179238
6188000000.0 -0.0009368505561724305 -0.0006999311735853553
6189000000.0 -0.0011808560229837894 -0.00015496577543672174
6190000000.0 -0.0011450203601270914 0.0003396108513697982
6191000000.0 -0.0006733809714205563 0.0006942339241504669
6192000000.0 -0.00025018409360200167 0.00100947474129498
6193000000.0 0.00034566345857456326 0.0011211561504751444
6194000000.0 0.0007781130843795836 0.000863314257003367
6195000000.0 0.001075492356903851 0.0005981344147585332
6196000000.0 0.0013039615005254745 -0.00010532090527703986
6197000000.0 0.0008602913585491478 -0.0007188224117271602
6198000000.0 0.0006721249083057046 -0.0009411742794327438
6199000000.0 0.00010846640361705795 -0.0012549989623948932
6200000000.0 -0.0005310260457918048 -0.0010972240706905723
6201000000.0 -0.0009861983126029372 -0.0005408261204138398
6202000000.0 -0.0012739048106595874 -0.0001413170393789187
6203000000.0 -0.0012036875123158097 0.0006145654479041696
6204000000.0 -0.0007682957220822573 0.0009362149285152555
6205000000.0 -0.0002753929002210498 0.0012832160573452711
6206000000.0 0.00033518695272505283 0.0010758666321635246
6207000000.0 0.0008833650499582291 0.0007046325481496751
6208000000.0 0.0011025910498574376 0.00045359155046753585
6209000000.0 0.0011904514394700527 -0.00038947799475863576
6210000000.0 0.0009975749999284744 -0.0007494999445043504
6211000000.0 0.0004559344088193029 -0.0010806707432493567
6212000000.0 -5.190166848478839e-05 -0.0012746877036988735
6213000000.0 -0.0007700459100306034 -0.0008275228319689631
6214000000.0 -0.0010130505543202162 -0.000611745985224843
6215000000.0 -0.0012877280823886395 8.034239726839587e-05
6216000000.0 -0.0010789706138893962 0.000473464751848951
6217000000.0 -0.000701390381436795 0.0008832192397676408
6218000000.0 8.0845806223806e-05 0.001168762450106442
6219000000.0 0.0004559872322715819 0.0010013863211497664
6220000000.0 0.001101460657082498 0.0006370344781316817
6221000000.0 0.0010555009357631207 0.00034361143480055034
6222000000.0 0.0008902240078896284 -0.0004012628924101591
6223000000.0 0.0006241549272090197 -0.0008060932741500437
6224000000.0 0.0002655332500580698 -0.0011437146458774805
6225000000.0 -0.00020990168559364974 -0.0009989254176616669
6226000000.0 -0.0006035476108081639 -0.0009036621195264161
6227000000.0 -0.0010861061746254563 -0.00044217973481863737
6228000000.0 -0.0009699983638711274 0.00010852806735783815
6229000000.0 -0.0008380242506973445 0.0006329244934022427
6230000000.0 -0.0005442469264380634 0.0008970003109425306
6231000000.0 -1.1632571840891615e-05 0.001078014844097197
6232000000.0 0.0007158496882766485 0.0009144624345935881
6233000000.0 0.000949052453506738 0.0006260796217247844
6234000000.0 0.0010354702826589346 -2.468219281581696e-05
6235000000.0 0.0008699798490852118 -0.0002614906115923077
6236000000.0 0.0008407158893533051 -0.0006844869931228459
6237000000.0 0.00020808637782465667 -0.001015141257084906
6238000000.0 -0.0005097389803268015 -0.0009850435890257359
6239000000.0 -0.0006972089176997542 -0.0007526203407905996
6240000000.0 -0.0008966263267211616 -0.00033220017212443054
6241000000.0 -0.0009778946405276656 0.00016807341307867318
6242000000.0 -0.0008305352530442178 0.0007403407944366336
6243000000.0 -0.00045558743295259774 0.0009426134056411684
6244000000.0 -1.0769210348371416e-05 0.0010204879799857736
6245000000.0 0.0006266526179388165 0.0008540062117390335
6246000000.0 0.0008914467762224376 0.0004823048657272011
6247000000.0 0.0010484884260222316 0.00013106573896948248
6248000000.0 0.0008696577278897166 -0.0003734782221727073
6249000000.0 0.0006229382706806064 -0.0005873588379472494
6250000000.0 0.0002552068035583943 -0.0006903177127242088
6251000000.0 -0.00030678953044116497 -0.0009355669608339667
6252000000.0 -0.0005216448334977031 -0.0007834667921997607
6253000000.0 -0.0008627740317024291 -0.00016368871729355305
6254000000.0 -0.0010411434341222048 -2.3933251213748008e-05
6255000000.0 -0.000729890598449856 0.0005416962085291743
6256000000.0 -0.0004268631455488503 0.0007899689953774214
6257000000.0 0.00014190193905960768 0.0008506026351824403
6258000000.0 0.00034889273229055107 0.0008093836368061602
6259000000.0 0.0007554753683507442 0.0005460882675834
6260000000.0 0.0009019644930958748 0.00024394376669079065
6261000000.0 0.0008144916500896215 -0.00012393650831654668
6262000000.0 0.0005756889004260302 -0.0005067671881988645
6263000000.0 0.00018440787971485406 -0.0008195837726816535
6264000000.0 -0.00016153184697031975 -0.0009125805227085948
6265000000.0 -0.0006856925901956856 -0.0006573483115062118
6266000000.0 -0.0008347330731339753 -0.00035628213663585484
6267000000.0 -0.0007688679615966976 2.8663176635745913e-05
6268000000.0 -0.0008084795554168522 0.0003371300990693271
6269000000.0 -0.0004292443045414984 0.0007640921394340694
6270000000.0 -1.1052538866351824e-06 0.0007423299248330295
6271000000.0 0.0002618084545247257 0.0007626832230016589
6272000000.0 0.0005850018933415413 0.0005965981399640441
6273000000.0 0.001010635169222951 0.00033998643630184233
6274000000.0 0.000830512261018157 -0.00014584598829969764
6275000000.0 0.0005297677125781775 -0.0006141308113001287
6276000000.0 0.00032204153831116855 -0.0008560102432966232
6277000000.0 -0.0001437790779164061 -0.0008329272968694568
6278000000.0 -0.00048215745482593775 -0.0006899150903336704
6279000000.0 -0.0006919336155988276 -0.0003968211240135133
6280000000.0 -0.0010213404893875122 -1.7724411009112373e-05
6281000000.0 -0.0008872415055520833 0.00041568317101337016
6282000000.0 -0.0005860658711753786 0.0009122699266299605
6283000000.0 -0.00025804457254707813 0.0010577670764178038
6284000000.0 0.0004092696472071111 0.0009343615965917706
6285000000.0 0.0006206846446730196 0.0005007846048101783
6286000000.0 0.0009947976795956492 0.0003544023784343153
6287000000.0 0.0009107246878556907 -0.00029320589965209365
6288000000.0 0.0008187360363081098 -0.0006448272615671158
6289000000.0 0.00043809149065054953 -0.000985711463727057
6290000000.0 -4.754141627927311e-05 -0.0011428659781813622
6291000000.0 -0.0005740950582548976 -0.0008583699818700552
6292000000.0 -0.001088988035917282 -0.0005416458006948233
6293000000.0 -0.001229086541570723 -0.00013898962060920894
6294000000.0 -0.0011813680175691843 0.0005094607477076352
6295000000.0 -0.0006270006997510791 0.0010683373548090458
6296000000.0 -0.00019246831652708352 0.0011177872074767947
6297000000.0 0.0005079630063846707 0.0011251739924773574
6298000000.0 0.0008611869416199625 0.0009037273703143001
6299000000.0 0.0012568389065563679 0.0002717558527365327
6300000000.0 0.001271235872991383 -0.00038830534322187304
6301000000.0 0.0009522696491330862 -0.001045652781613171
6302000000.0 0.00040172942681238055 -0.001287392107769847
6303000000.0 -0.00039338553324341774 -0.001364062656648457
6304000000.0 -0.0010080373613163829 -0.0011186687042936683
6305000000.0 -0.0014175584074109793 -0.0004070807481184602
6306000000.0 -0.0013592701870948076 0.00020356624736450613
6307000000.0 -0.0010471357963979244 0.0009568698005750775
6308000000.0 -0.0005893508205190301 0.0013119677314534783
6309000000.0 0.00016326166223734617 0.001446175156161189
6310000000.0 0.000993137015029788 0.0012329728342592716
6311000000.0 0.0013492645230144262 0.0005670630489476025
6312000000.0 0.001413160003721714 -0.00024435893283225596
6313000000.0 0.0011435943888500333 -0.0008205787744373083
6314000000.0 0.0004836824955418706 -0.001215179800055921
6315000000.0 -8.649494702694938e-06 -0.0013014714932069182
6316000000.0 -0.0006600991473533213 -0.0011584341991692781
6317000000.0 -0.0010907574323937297 -0.0004931382136419415
6318000000.0 -0.0013699412811547518 -4.550837547867559e-05
6319000000.0 -0.0010396844008937478 0.0007202163687907159
6320000000.0 -0.00053929298883304 0.0010738007258623838
6321000000.0 -7.278489647433162e-05 0.0011185050243511796
6322000000.0 0.00048551944200880826 0.0011044443817809224
6323000000.0 0.0009535113931633532 0.0007248803740367293
6324000000.0 0.0011509902542456985 0.0001247350446647033
6325000000.0 0.0010694977827370167 -0.00040979491313919425
6326000000.0 0.000857097445987165 -0.0008593738893978298
6327000000.0 0.0003384698065929115 -0.0010158894583582878
6328000000.0 -0.00014862189709674567 -0.0009884567698463798
6329000000.0 -0.000685475766658783 -0.0008249392849393189
6330000000.0 -0.0010538555216044188 -0.00030990460072644055
6331000000.0 -0.001074622618034482 0.00013139603834133595
6332000000.0 -0.0009068769286386669 0.0006144750514067709
6333000000.0 -0.0003740564570762217 0.0009669109131209552
6334000000.0 1.1766843272198457e-05 0.001141366083174944
6335000000.0 0.00048677492304705083 0.000840245746076107
6336000000.0 0.000875950267072767 0.0005580075667239726
6337000000.0 0.000981646589934826 5.5562522902619094e-05
6338000000.0 0.0009160073241218925 -0.00032756204018369317
6339000000.0 0.0006790848565287888 -0.0007782542379572988
6340000000.0 0.00019933829025831074 -0.001021462376229465
6341000000.0 -0.00014780867786612362 -0.0008673468255437911
6342000000.0 -0.0006414006347768009 -0.0006158830365166068
6343000000.0 -0.0009290335583500564 -0.0004516950575634837
6344000000.0 -0.0009510209201835096 0.00013213904458098114
6345000000.0 -0.0008146792533807456 0.0004664086445700377
6346000000.0 -0.00047039531636983156 0.0007802901091054082
6347000000.0 -8.069923205766827e-05 0.0009394433000124991
6348000000.0 0.0005167563795112073 0.0008149101049639285
6349000000.0 0.0007991490419954062 0.0005286748055368662
6350000000.0 0.001024180673994124 0.00015615230950061232
6351000000.0 0.0007694584201090038 -0.00030605882056988776
6352000000.0 0.0006797885871492326 -0.000723301840480417
6353000000.0 0.00023602395958732814 -0.0009258633363060653
6354000000.0 -0.00021248844859655946 -0.0009105807985179126
6355000000.0 -0.0006424895254895091 -0.0007969632861204445
6356000000.0 -0.0009326727013103664 -0.00028084381483495235
6357000000.0 -0.000978343770839274 7.154207560233772e-05
6358000000.0 -0.0007539367070421576 0.0006326957955025136
6359000000.0 -0.0004757558344863355 0.0007407459779642522
6360000000.0 8.824678843666334e-06 0.0010283829178661108
6361000000.0 0.0004990515299141407 0.0008001689566299319
6362000000.0 0.0008586888434365392 0.0005143231828697026
6363000000.0 0.0010141253005713224 0.00013496521569322795
6364000000.0 0.0008380363578908145 -0.0003759860119316727
6365000000.0 0.0006108312518335879 -0.0006695864722132683
6366000000.0 0.0002945049200206995 -0.0009223723318427801
6367000000.0 -0.00025648612063378096 -0.0009819066617637873
6368000000.0 -0.0006880394066683948 -0.0006941103492863476
6369000000.0 -0.0008659374434500933 -0.00022554532915819436
6370000000.0 -0.0009894142858684063 0.0002262583002448082
6371000000.0 -0.0007507450063712895 0.0005552686634473503
6372000000.0 -0.0003733496996574104 0.0009093952248804271
6373000000.0 6.596665571123594e-06 0.0010650248732417822
6374000000.0 0.000481777242384851 0.0009033121168613434
6375000000.0 0.0008325090748257935 0.0004587876610457897
6376000000.0 0.000957221258431673 4.566722964227665e-06
6377000000.0 0.0008523278520442545 -0.0003974050341639668
6378000000.0 0.0005817476776428521 -0.0007486308459192514
6379000000.0 0.0001513749302830547 -0.0009852326475083828
6380000000.0 -0.0003218744823243469 -0.0008785051759332418
6381000000.0 -0.0007170136086642742 -0.0006464513717219234
6382000000.0 -0.0009512056712992489 -0.00032149514299817383
6383000000.0 -0.0009431957150809467 0.00019672804046422243
6384000000.0 -0.0007576909265480936 0.0006287309806793928
6385000000.0 -0.0002949664485640824 0.0008968252805061638
6386000000.0 0.00012027537013636902 0.0009933877736330032
6387000000.0 0.0006831036880612373 0.0008400185615755618
6388000000.0 0.0009689510916359723 0.0004205967707093805
6389000000.0 0.0009854839881882071 5.708446042262949e-05
6390000000.0 0.0008661063620820642 -0.0005830155569128692
6391000000.0 0.0004902002983726561 -0.000948901055380702
6392000000.0 4.81994757137727e-05 -0.0010067367693409324
6393000000.0 -0.0005306668463163078 -0.0009731603204272687
6394000000.0 -0.0008279389585368335 -0.0006175082526169717
6395000000.0 -0.0010750123765319586 -0.00016657619562465698
6396000000.0 -0.0010331535013392568 0.00031326207681559026
6397000000.0 -0.0007468772819265723 0.0007442365167662501
6398000000.0 -0.00022039812756702304 0.0009274627664126456
6399000000.0 0.0002980876015499234 0.0009935024427250028
6400000000.0 0.0008083211723715067 0.0007996568456292152
6401000000.0 0.0010879073524847627 0.0002821274392772466
6402000000.0 0.0010325938928872347 -0.0003170109121128917
6403000000.0 0.0009069046936929226 -0.0007513869786635041
6404000000.0 0.00035489065339788795 -0.0011003208346664906
6405000000.0 -0.00011400022776797414 -0.0010437520686537027
6406000000.0 -0.0006044693291187286 -0.0008748957188799977
6407000000.0 -0.0010320489527657628 -0.0004012195277027786
6408000000.0 -0.0011118723778054118 0.00018040557915810496
6409000000.0 -0.0008766776882112026 0.0006964131607674062
6410000000.0 -0.00041145080467686057 0.0008981279679574072
6411000000.0 7.842007471481338e-05 0.001041900715790689
6412000000.0 0.0005731430719606578 0.0008816214394755661
6413000000.0 0.0009135419386439025 0.0004260868008714169
6414000000.0 0.0010595724452286959 -5.5522566981380805e-05
6415000000.0 0.0008346664253622293 -0.0005380806978791952
6416000000.0 0.0004826386284548789 -0.0008705295040272176
6417000000.0 -1.9745408280869015e-05 -0.00102977454662323
6418000000.0 -0.0003065816417802125 -0.000810561585240066
6419000000.0 -0.0007505912217311561 -0.0005064590368419886
6420000000.0 -0.0008549694903194904 -0.0001530213630758226
6421000000.0 -0.0007967479177750647 0.00026152285863645375
6422000000.0 -0.0005685240612365305 0.0006703693070448935
6423000000.0 -0.00017023058899212629 0.0008933114586398005
6424000000.0 0.0002075032243737951 0.0008892272016964853
6425000000.0 0.000551390228793025 0.0006328219315037131
6426000000.0 0.0007883945945650339 0.00025128162815235555
6427000000.0 0.0007653827196918428 -0.0001323097967542708
6428000000.0 0.0006311254692263901 -0.0004381276958156377
6429000000.0 0.00027370298630557954 -0.0007580067031085491
6430000000.0 -9.919252624968067e-05 -0.0007347984937950969
6431000000.0 -0.00033842449192889035 -0.0007368458318524063
6432000000.0 -0.0006670792354270816 -0.0003638978232629597
6433000000.0 -0.0007073762826621532 -4.249869743944146e-05
6434000000.0 -0.0007395854336209595 0.00030239138868637383
6435000000.0 -0.0004450978012755513 0.0005509904003702104
6436000000.0 -0.0002066282177111134 0.0007178065716288984
6437000000.0 0.00011984189768554643 0.0006997286691330373
6438000000.0 0.0005111860227771103 0.0005843672552146018
6439000000.0 0.0006171934073790908 0.00023066338326316327
6440000000.0 0.0006804820732213557 -7.9443292634096e-05
6441000000.0 0.0005767978727817535 -0.00032592969364486635
6442000000.0 0.0003310282772872597 -0.0006122820195741951
6443000000.0 3.40424367095693e-06 -0.000609265174716711
6444000000.0 -0.0003645798715297133 -0.0006342704873532057
6445000000.0 -0.0005959704867564142 -0.0004016592283733189
6446000000.0 -0.0006941556930541992 -8.666779467603192e-05
6447000000.0 -0.0007044954691082239 0.0001950276200659573
6448000000.0 -0.0004169875755906105 0.0005651082028634846
6449000000.0 -0.00020647121709771454 0.0007127606077119708
6450000000.0 0.00013113184832036495 0.0006927800714038312
6451000000.0 0.0004401840560603887 0.0005687950178980827
6452000000.0 0.0006469019572250545 0.0003076984721701592
6453000000.0 0.0006632833974435925 -8.480740507366136e-05
6454000000.0 0.0006431494257412851 -0.00031207260326482356
6455000000.0 0.0003687086282297969 -0.0006634365417994559
6456000000.0 5.0138827646151185e-05 -0.0006882644374854863
6457000000.0 -0.00031976358150132 -0.0006655290490016341
6458000000.0 -0.00058011244982481 -0.0004962849779985845
6459000000.0 -0.0007479128544218838 -0.00020771737035829574
6460000000.0 -0.0007379541639238596 0.00023548556782770902
6461000000.0 -0.0004841792688239366 0.0005113185616210103
6462000000.0 -0.00016947217227425426 0.0007668899488635361
6463000000.0 0.00018234459275845438 0.000764323165640235
6464000000.0 0.0005133674712851644 0.0007225225563161075
6465000000.0 0.000688598898705095 0.0003792507923208177
6466000000.0 0.0007286177715286613 -0.00010618861415423453
6467000000.0 0.000720302399713546 -0.0004819977330043912
6468000000.0 0.0004905269597657025 -0.0008193366811610758
6469000000.0 1.6442756532342173e-05 -0.000864054833073169
6470000000.0 -0.0003425875911489129 -0.0007455389713868499
6471000000.0 -0.0007288787746801972 -0.0005845045088790357
6472000000.0 -0.0009623965015634894 -6.929000664968044e-05
6473000000.0 -0.0009228480630554259 0.0002810712030623108
6474000000.0 -0.00055462378077209 0.0007747919298708439
6475000000.0 -8.849713776726276e-05 0.000988933490589261
6476000000.0 0.00030458709807135165 0.000955362047534436
6477000000.0 0.0006921273889020085 0.0006697112112306058
6478000000.0 0.0009221116779372096 0.00026991721824742854
6479000000.0 0.001010988256894052 -0.00022335049288813025
6480000000.0 0.0007503234082832932 -0.0007780786254443228
6481000000.0 0.0002748697006609291 -0.0009450892102904618
6482000000.0 -0.00015435305249411613 -0.0009197123581543565
6483000000.0 -0.0006493350956588984 -0.0007673245272599161
6484000000.0 -0.000976133334916085 -0.0003843274316750467
6485000000.0 -0.0010365633061155677 0.0001323226751992479
6486000000.0 -0.0009434314561076462 0.0005885331192985177
6487000000.0 -0.00044732989044860005 0.0009196233586408198
6488000000.0 3.213234231225215e-05 0.0010998824145644903
6489000000.0 0.0005497257225215435 0.0009261671220883727
6490000000.0 0.0009527967777103186 0.0005989331402815878
6491000000.0 0.0010554450564086437 3.42654857377056e-05
6492000000.0 0.001005984959192574 -0.00048058925312943757
6493000000.0 0.0006533985142596066 -0.0009466038318350911
6494000000.0 0.00010772281530080363 -0.0011100339470431209
6495000000.0 -0.0004832209087908268 -0.0011191724333912134
6496000000.0 -0.000978162046521902 -0.0007622765260748565
6497000000.0 -0.001152671524323523 -0.0001773837866494432
6498000000.0 -0.0011258783051744103 0.0004733993555419147
6499000000.0 -0.000795022293459624 0.0008382535306736827
6500000000.0 -0.00026209972565993667 0.0012644807575270534
6501000000.0 0.0003135856823064387 0.001128909643739462
6502000000.0 0.0009011871879920363 0.0009036450064741075
6503000000.0 0.0012079892912879586 0.00034187600249424577
6504000000.0 0.0012402008287608624 -0.0003238739154767245
6505000000.0 0.0009259530925191939 -0.0009130818070843816
6506000000.0 0.0003361367271281779 -0.0012301712995395064
6507000000.0 -0.00031345096067525446 -0.0012526637874543667
6508000000.0 -0.000903879466932267 -0.0009577433229424059
6509000000.0 -0.001259788405150175 -0.000467646837932989
6510000000.0 -0.0012551307445392013 0.0003361481358297169
6511000000.0 -0.001013477798551321 0.000943258753977716
6512000000.0 -0.0004493992018979043 0.0012557082809507847
6513000000.0 0.0002899070386774838 0.0011921199038624763
6514000000.0 0.0008611507946625352 0.0009402192663401365
6515000000.0 0.001100305700674653 0.0004314483667258173
6516000000.0 0.0012274781474843621 -0.00024119338195305318
6517000000.0 0.0009494874393567443 -0.0007725242176093161
6518000000.0 0.0003649603168014437 -0.0010282427538186312
6519000000.0 -0.00019285586313344538 -0.0011423964751884341
6520000000.0 -0.0006886797491461039 -0.0007261727005243301
6521000000.0 -0.0009662283700890839 -0.0005575282848440111
6522000000.0 -0.0010470353299751878 5.2739702368853614e-05
6523000000.0 -0.0008991028880700469 0.0005488773458637297
6524000000.0 -0.0005161840235814452 0.000898836413398385
6525000000.0 -8.850001904647797e-05 0.0009725433774292469
6526000000.0 0.00043700981768779457 0.0009120451868511736
6527000000.0 0.0007929738494567573 0.0005252007977105677
6528000000.0 0.0009466542978771031 0.00011958684626733884
6529000000.0 0.0008601823938079178 -0.000422381708631292
6530000000.0 0.0006396908429451287 -0.000735210778657347
6531000000.0 0.00019963261729571968 -0.0008761223289184272
6532000000.0 -0.0002560069551691413 -0.0009395166416652501
6533000000.0 -0.0005569615168496966 -0.0005918132374063134
6534000000.0 -0.0008549741469323635 -0.00031957513419911265
6535000000.0 -0.0008288801764138043 0.00010055580059997737
6536000000.0 -0.0006700152298435569 0.0004977664211764932
6537000000.0 -0.00038977136136963964 0.0006983986240811646
6538000000.0 -4.5133921958040446e-05 0.0006939303711988032
6539000000.0 0.0003757021913770586 0.0006618396728299558
6540000000.0 0.0006888463394716382 0.000465066492324695
6541000000.0 0.000754788750782609 0.00011125161108793691
6542000000.0 0.0006842162110842764 -0.00023973736097104847
6543000000.0 0.0004973475588485599 -0.0004822866467293352
6544000000.0 0.00012748100562021136 -0.0007622276898473501
6545000000.0 -0.00020744260109495372 -0.0007055302849039435
6546000000.0 -0.0005308162071742117 -0.0006193927838467062
6547000000.0 -0.0006222932133823633 -0.0003023312601726502
6548000000.0 -0.0008014412596821785 -1.3617701597468113e-06
6549000000.0 -0.0005914955399930477 0.0002998764393851161
6550000000.0 -0.000405834405682981 0.0007000999175943434
6551000000.0 -0.00011746307427529246 0.0006983458297327161
6552000000.0 0.00020550412591546774 0.0006415997049771249
6553000000.0 0.0005696875159628689 0.0004848590469919145
6554000000.0 0.0008037380175665021 0.0001670788915362209
6555000000.0 0.0007819224847480655 -0.00024049534113146365
6556000000.0 0.0006133759161457419 -0.0005411084275692701
6557000000.0 0.00031496776500716805 -0.0007350406958721578
6558000000.0 -0.00013253818906378 -0.0008650649688206613
6559000000.0 -0.0004051757277920842 -0.0007246912573464215
6560000000.0 -0.0007229901966638863 -0.00043270160676911473
6561000000.0 -0.0009109735838137567 -7.390144673991017e-06
6562000000.0 -0.0007419182220473886 0.0003451768425293267
6563000000.0 -0.0004923345986753702 0.0007609403692185879
6564000000.0 -3.618685150286183e-05 0.0009155148291029036
6565000000.0 0.00024680179194547236 0.0008773757144808769
6566000000.0 0.0008060830878093839 0.0005831836606375873
6567000000.0 0.0009882696904242039 0.00025757981347851455
6568000000.0 0.0009760439861565828 -0.0002861284592654556
6569000000.0 0.0006493398686870933 -0.0005796340410597622
6570000000.0 0.0003289090236648917 -0.0009092685650102794
6571000000.0 -0.00020585895981639624 -0.000937809469178319
6572000000.0 -0.0006059261504560709 -0.0008265705546364188
6573000000.0 -0.0008584127062931657 -0.0003441836452111602
6574000000.0 -0.0010501807555556297 7.394790736725554e-05
6575000000.0 -0.0008765525417402387 0.0005950414924882352
6576000000.0 -0.00040485660429112613 0.0008763812948018312
6577000000.0 0.00012401373533066362 0.0010674291988834739
6578000000.0 0.0005548645276576281 0.000848551164381206
6579000000.0 0.0008861261885613203 0.00043914050911553204
6580000000.0 0.0010056397877633572 8.283234637929127e-05
6581000000.0 0.0009346239967271686 -0.0004667384782806039
6582000000.0 0.000563250039704144 -0.0008553967345505953
6583000000.0 0.0001544029073556885 -0.0010559364454820752
6584000000.0 -0.00034148248960264027 -0.0010133683681488037
6585000000.0 -0.0008945402805693448 -0.0006692890310660005
6586000000.0 -0.0010504124220460653 -0.00014370953431352973
6587000000.0 -0.0010060482891276479 0.0004041811916977167
6588000000.0 -0.0006362753338180482 0.000769339851103723
6589000000.0 -0.0002550409408286214 0.0009879639837890863
6590000000.0 0.0003356457455083728 0.0009652940207161009
6591000000.0 0.0006641263607889414 0.0007744867471046746
6592000000.0 0.000975178787484765 0.0002929293259512633
6593000000.0 0.00098563136998564 -0.00015524459013249725
6594000000.0 0.0007587118307128549 -0.000631487462669611
6595000000.0 0.0003381268179509789 -0.0009406395256519318
6596000000.0 -0.00018967197684105486 -0.0010046681854873896
6597000000.0 -0.0005473830387927592 -0.000811365491244942
6598000000.0 -0.0008892352925613523 -0.0004709003842435777
6599000000.0 -0.0009153395076282322 -0.0001175714423879981
6600000000.0 -0.0007595145143568516 0.0003478837024886161
6601000000.0 -0.0005286142113618553 0.0008077167440205812
6602000000.0 -0.00014393599121831357 0.0008629730436950922
6603000000.0 0.00037927425000816584 0.0008296718006022274
6604000000.0 0.0007588205044157803 0.000559561129193753
6605000000.0 0.000980820506811142 0.00019335166143719107
6606000000.0 0.0009617190808057785 -0.00027974945260211825
6607000000.0 0.0007262825965881348 -0.0005944421864114702
6608000000.0 0.0002679566969163716 -0.0009316761861555278
6609000000.0 -0.00018541071040090173 -0.0009619996999390423
6610000000.0 -0.0006601252243854105 -0.0007769166259095073
6611000000.0 -0.000876529433298856 -0.00046228672727011144
6612000000.0 -0.001096795778721571 4.157853254582733e-05
6613000000.0 -0.0007788326474837959 0.0005780097562819719
6614000000.0 -0.000509418488945812 0.0008806237019598484
6615000000.0 -1.860412521637045e-05 0.0010165172861889005
6616000000.0 0.00046756851952522993 0.000848017109092325
6617000000.0 0.00073122454341501 0.0005668888916261494
6618000000.0 0.0009230541181750596 8.9093970018439e-05
6619000000.0 0.0009737037471495569 -0.00040369658381678164
6620000000.0 0.0006994536379352212 -0.000803538307081908
6621000000.0 0.00013030425179749727 -0.0010252693900838494
6622000000.0 -0.000328973401337862 -0.000926447391975671
6623000000.0 -0.000796228414401412 -0.0005213313270360231
6624000000.0 -0.0009177657775580883 -0.0002783973468467593
6625000000.0 -0.0010858739260584116 0.00026067174621857703
6626000000.0 -0.0006950613460503519 0.000625524902716279
6627000000.0 -0.0003102668561041355 0.0008932253695093095
6628000000.0 0.00011456853098934516 0.0009614210575819016
6629000000.0 0.0006545741925947368 0.000800528796389699
6630000000.0 0.0009179406915791333 0.00036032998468726873
6631000000.0 0.0010253856889903545 -0.00019080014317296445
6632000000.0 0.0007226092275232077 -0.0005070501356385648
6633000000.0 0.000399717508116737 -0.0007817751029506326
6634000000.0 -0.00015607474779244512 -0.0009980931645259261
6635000000.0 -0.000424315279815346 -0.0008599403081461787
6636000000.0 -0.0007923768716864288 -0.0005565792671404779
6637000000.0 -0.000899708247743547 -4.5932461944175884e-05
6638000000.0 -0.0008264352800324559 0.0004040696658194065
6639000000.0 -0.0005192082026042044 0.0007572534377686679
6640000000.0 -0.00018733237811829895 0.0008764664526097476
6641000000.0 0.0003550168767105788 0.0007342358003370464
6642000000.0 0.0005581142613664269 0.0005559444543905556
6643000000.0 0.0008119458798319101 0.00018937044660560787
6644000000.0 0.000883106142282486 -0.00018083240138366818
6645000000.0 0.0007515652687288821 -0.0004699415876530111
6646000000.0 0.00031458126613870263 -0.000712110020685941
6647000000.0 -2.3584903829032555e-05 -0.0008053115452639759
6648000000.0 -0.0005114502273499966 -0.0006434555980376899
6649000000.0 -0.0007226101588457823 -0.0004227835452184081
6650000000.0 -0.0007988328579813242 1.4199009456206113e-05
6651000000.0 -0.0007320286822505295 0.0003356470260769129
6652000000.0 -0.0005710190162062645 0.0006995679577812552
6653000000.0 -6.457599374698475e-05 0.0008701416081748903
6654000000.0 0.0002048544556600973 0.0007628925377503037
6655000000.0 0.0006053373799659312 0.0006096531287766993
6656000000.0 0.0006712438771501184 0.00032970673055388033
6657000000.0 0.0008972582290880382 -0.00016445619985461235
6658000000.0 0.0006469247746281326 -0.0004732151865027845
6659000000.0 0.00030509548378176987 -0.0008347206749022007
6660000000.0 -3.4658001823117957e-05 -0.0008392556337639689
6661000000.0 -0.00038035790203139186 -0.0008459718665108085
6662000000.0 -0.0007806678186170757 -0.0004187550803180784
6663000000.0 -0.0009525614441372454 -8.282065209641587e-06
6664000000.0 -0.0008079537656158209 0.0003871350781992078
6665000000.0 -0.000655769428703934 0.0008308720425702631
6666000000.0 -0.00012863775191362947 0.0009455941035412252
6667000000.0 0.0003516106226015836 0.0009225629619322717
6668000000.0 0.0007581817917525768 0.0006769701140001416
6669000000.0 0.0009620802011340857 0.0001590143801877275
6670000000.0 0.0009861828293651342 -0.0002574989339336753
6671000000.0 0.0007129069999791682 -0.0006552153499796987
6672000000.0 0.0003995523147750646 -0.0010102939559146762
6673000000.0 -0.00015355776122305542 -0.0010688421316444874
6674000000.0 -0.0007203467539511621 -0.0009011409129016101
6675000000.0 -0.0010857273591682315 -0.0005447134608402848
6676000000.0 -0.001225877902470529 8.612182682554703e-06
6677000000.0 -0.0009277020581066608 0.000692880479618907
6678000000.0 -0.0005224654451012611 0.001084467745386064
6679000000.0 7.681116403546184e-05 0.0012398789403960109
6680000000.0 0.0007558383513242006 0.0009900132426992059
6681000000.0 0.0011232795659452677 0.0006005902541801333
6682000000.0 0.0012331886682659388 -6.257013592403382e-05
6683000000.0 0.001093335566110909 -0.0006055750418454409
6684000000.0 0.0005162080051377416 -0.001008042017929256
6685000000.0 -3.5853770441462984e-06 -0.0012829042971134186
6686000000.0 -0.0006627389811910689 -0.0009015189134515822
6687000000.0 -0.000924058083910495 -0.0005916045047342777
6688000000.0 -0.0011303287465125322 -9.591316484147683e-05
6689000000.0 -0.0009917864808812737 0.000646160333417356
6690000000.0 -0.0004927389090880752 0.0009421738213859499
6691000000.0 3.188654955010861e-05 0.0011018533259630203
6692000000.0 0.0003776860248763114 0.0009458946879021823
6693000000.0 0.0007871976122260094 0.0004667419125325978
6694000000.0 0.001018162234686315 0.00019128968415316194
6695000000.0 0.0009423569426871836 -0.0004533340397756547
6696000000.0 0.0006418409757316113 -0.000796109379734844
6697000000.0 0.00019243427959736437 -0.000971247733104974
6698000000.0 -0.00035226671025156975 -0.000834976730402559
6699000000.0 -0.0007766166818328202 -0.000680023804306984
6700000000.0 -0.0008660531020723283 -0.0001013220171444118
6701000000.0 -0.0008782724034972489 0.00012276553025003523
6702000000.0 -0.0006173155852593482 0.0005553765804506838
6703000000.0 -0.0002592646051198244 0.0007722317241132259
6704000000.0 0.00015386116865556687 0.0009363050921820104
6705000000.0 0.0005965731688775122 0.0006772179622203112
6706000000.0 0.0007090563303790987 0.0003286099527031183
6707000000.0 0.0007923012017272413 8.150366193149239e-05
6708000000.0 0.0005963549483567476 -0.00046294680214487016
6709000000.0 0.0005701228510588408 -0.0006544521311298013
6710000000.0 3.4352171496720985e-05 -0.0007446306408382952
6711000000.0 -0.0003228341229259968 -0.0006837218534201384
6712000000.0 -0.000513477367348969 -0.0005299553158693016
6713000000.0 -0.0008447867585346103 -0.00022935227025300264
6714000000.0 -0.0008510497282259166 0.0002818531065713614
6715000000.0 -0.0005354238091968 0.0005491410847753286
6716000000.0 -0.0001804501807782799 0.0007853569113649428
6717000000.0 6.236629269551486e-05 0.0007010964909568429
6718000000.0 0.0005587181076407433 0.0006843465962447226
6719000000.0 0.0007500133360736072 0.00043826925684697926
6720000000.0 0.0008041606051847339 3.283156911493279e-05
6721000000.0 0.0007765534101054072 -0.00041943826363421977
6722000000.0 0.0004117258358746767 -0.0006882568704895675
6723000000.0 5.508411504706601e-06 -0.0008413185714744031
6724000000.0 -0.0003364280564710498 -0.000631167960818857
6725000000.0 -0.0005811995361000299 -0.0004904618253931403
6726000000.0 -0.0007903393125161529 -0.00017432775348424911
6727000000.0 -0.0008685463690198958 0.00036252778954803944
6728000000.0 -0.0004940903163515031 0.0006215727771632373
6729000000.0 -0.00021337733778636903 0.0007388588855974376
6730000000.0 0.00030464152223430574 0.0006648091366514564
6731000000.0 0.0005271039553917944 0.0004938627243973315
6732000000.0 0.0007639059913344681 0.0002518562541808933
6733000000.0 0.0008312603458762169 -0.00021097846911288798
6734000000.0 0.0005629523075185716 -0.00040673185139894485
6735000000.0 0.00016421386681031436 -0.0007107267738319933
6736000000.0 -0.00018927126075141132 -0.0006530489772558212
6737000000.0 -0.0004664564912673086 -0.0006228326819837093
6738000000.0 -0.0006864967290312052 -0.0003828659828286618
6739000000.0 -0.0005836047348566353 1.565531056257896e-05
6740000000.0 -0.0005027088336646557 0.0003077323781326413
6741000000.0 -0.000441091280663386 0.0005787648842670023
6742000000.0 4.568006261251867e-05 0.0006917105638422072
6743000000.0 0.00016668943862896413 0.000671158719342202
6744000000.0 0.00040993920993059874 0.00036306545371189713
6745000000.0 0.0006589142722077668 0.00023455773771274835
6746000000.0 0.0006116295699030161 -0.00017034623306244612
6747000000.0 0.0005533641087822616 -0.0004330745723564178
6748000000.0 0.0002768906415440142 -0.0006577777676284313
6749000000.0 -9.569896064931527e-05 -0.00048374864854849875
6750000000.0 -0.0003114334540441632 -0.0004601149121299386
6751000000.0 -0.0006788346800021827 -0.00030403872369788587
6752000000.0 -0.0005708509706892073 9.120730101130903e-05
6753000000.0 -0.0006385816377587616 0.0002558063715696335
6754000000.0 -0.00031824895995669067 0.0004694362578447908
6755000000.0 2.239782224933151e-05 0.0006536439177580178
6756000000.0 0.00015910330694168806 0.0005600813310593367
6757000000.0 0.0004678750119637698 0.0004342446045484394
6758000000.0 0.0004276430991012603 9.421177674084902e-05
6759000000.0 0.0005327855469658971 -1.631939085200429e-05
6760000000.0 0.00045506336027756333 -0.0003529108944348991
6761000000.0 0.00017419741197954863 -0.0004310179501771927
6762000000.0 7.793571421643719e-05 -0.0004899435443803668
6763000000.0 -0.00021833728533238173 -0.000555920647457242
6764000000.0 -0.00048134231474250555 -0.0003217043704353273
6765000000.0 -0.0006544350762851536 -4.8503814468858764e-05
6766000000.0 -0.0005963027360849082 0.0002468086313456297
6767000000.0 -0.0004008003161288798 0.0004204154829494655
6768000000.0 -9.578694880474359e-05 0.0005001378594897687
6769000000.0 0.00013467347889672965 0.0005632725660689175
6770000000.0 0.000396226707380265 0.0005506108864210546
6771000000.0 0.000649893656373024 0.0003009405336342752
6772000000.0 0.0007285274914465845 1.6886255025383434e-06
6773000000.0 0.0006377482786774635 -0.000266183604253456
6774000000.0 0.00033413482015021145 -0.00043462947360239923
6775000000.0 0.00014567779726348817 -0.000637377961538732
6776000000.0 -0.0002555360842961818 -0.0005822520470246673
6777000000.0 -0.0004922305815853179 -0.0004562671238090843
6778000000.0 -0.0006905010668560863 -0.0001790827518561855
6779000000.0 -0.0007444765651598573 2.7639322070172057e-05
6780000000.0 -0.0006360727711580694 0.0004936870536766946
6781000000.0 -0.000269357580691576 0.0005831844173371792
6782000000.0 4.734087997348979e-05 0.0007264616433531046
6783000000.0 0.00046199222560971975 0.0006745951250195503
6784000000.0 0.0007659411639906466 0.00037755395169369876
6785000000.0 0.0008676918223500252 0.00010499952622922137
6786000000.0 0.0008619703585281968 -0.0004027893010061234
6787000000.0 0.0006053323158994317 -0.0007666464662179351
6788000000.0 2.5760149583220482e-05 -0.0009199111955240369
6789000000.0 -0.00041683821473270655 -0.0008825321565382183
6790000000.0 -0.0007621305994689465 -0.0006682006642222404
6791000000.0 -0.0010491206776350737 -0.0002470600593369454
6792000000.0 -0.0010157889919355512 0.0003311895707156509
6793000000.0 -0.0006714232149533927 0.0007721339934505522
6794000000.0 -0.0001998497173190117 0.001066396594978869
6795000000.0 0.00026367648388259113 0.0010237080277875066
6796000000.0 0.0008007372380234301 0.0007602988625876606
6797000000.0 0.0010213720379397273 0.0002486741286702454
6798000000.0 0.0010366078931838274 -0.00016649470489937812
6799000000.0 0.0008370595169253647 -0.0008211573585867882
6800000000.0 0.0002011960605159402 -0.0010399370221421123
6801000000.0 -9.844604937825352e-05 -0.0010847185039892793
6802000000.0 -0.0008474337519146502 -0.000923647137824446
6803000000.0 -0.0009860508143901825 -0.000302167289191857
6804000000.0 -0.0010344898328185081 0.00019732971850316972
6805000000.0 -0.0006982337799854577 0.0008047540904954076
6806000000.0 -0.00041182184941135347 0.0010330271907150745
6807000000.0 -1.571137545397505e-05 0.0011235099518671632
6808000000.0 0.0005116474349051714 0.0008410474401898682
6809000000.0 0.0009831683710217476 0.0005243939813226461
6810000000.0 0.000882678315974772 -8.312555291922763e-05
6811000000.0 0.0009583499049767852 -0.0005113803781569004
6812000000.0 0.00041367969242855906 -0.0007885256200097501
6813000000.0 9.388060425408185e-05 -0.0009517014841549098
6814000000.0 -0.00042904281872324646 -0.0008071460761129856
6815000000.0 -0.0008494553621858358 -0.0006551904953084886
6816000000.0 -0.0009700453374534845 -0.00025173521135002375
6817000000.0 -0.000971771078184247 0.00048048942699097097
6818000000.0 -0.0005739605985581875 0.0006745907012373209
6819000000.0 -0.0003613507142290473 0.0009800756815820932
6820000000.0 0.00019799517758656293 0.0009920223383232951
6821000000.0 0.0007093915482982993 0.0007575418567284942
6822000000.0 0.001032141619361937 0.0003674218896776438
6823000000.0 0.0010810375679284334 -0.0002179764851462096
6824000000.0 0.0007578706135973334 -0.0006232802988961339
6825000000.0 0.0004064041131641716 -0.0008912534103728831
6826000000.0 2.8586264306795783e-05 -0.0009498843573965132
6827000000.0 -0.0005467060836963356 -0.0009852424263954163
6828000000.0 -0.0007712417282164097 -0.0005696131265722215
6829000000.0 -0.001160144922323525 8.689059905009344e-05
6830000000.0 -0.0009988409001380205 0.0006008325144648552
6831000000.0 -0.00047843740321695805 0.0008493336499668658
6832000000.0 -0.0002545104071032256 0.0010641418630257249
6833000000.0 0.0003781288687605411 0.000830905744805932
6834000000.0 0.000894626893568784 0.0006526652141474187
6835000000.0 0.0011377610499039292 0.00032243330497294664
6836000000.0 0.0009955493733286858 -0.0003422746085561812
6837000000.0 0.00069144566077739 -0.0008912010816857219
6838000000.0 0.00024094758555293083 -0.0008895632927305996
6839000000.0 -0.00031438443693332374 -0.0008862417889758945
6840000000.0 -0.000693241658154875 -0.0006397391553036869
6841000000.0 -0.0009775111684575677 -0.00031125510577112436
6842000000.0 -0.0010447601089254022 0.00021354651835281402
6843000000.0 -0.0007153464248403907 0.0006434762617573142
6844000000.0 -0.00031127690454013646 0.001037112670019269
6845000000.0 7.607788575114682e-05 0.0008941878913901746
6846000000.0 0.000641404592897743 0.000647622742690146
6847000000.0 0.000864892965182662 0.00048616703134030104
6848000000.0 0.0008351360447704792 -0.00018035018001683056
6849000000.0 0.0009021961595863104 -0.0005666572251357138
6850000000.0 0.00044359403545968235 -0.0009477476123720407
6851000000.0 -0.00013207425945438445 -0.0008106844616122544
6852000000.0 -0.00046192292938940227 -0.0007028733380138874
6853000000.0 -0.0006880557048134506 -0.0005836162017658353
6854000000.0 -0.0008488838211633265 -1.5881965737207793e-05
6855000000.0 -0.0008471256587654352 0.0001657427492318675
6856000000.0 -0.0005023936391808093 0.0006670905859209597
6857000000.0 -0.00019082389189861715 0.0006602853536605835
6858000000.0 0.0001745693589327857 0.0007838847232051194
6859000000.0 0.0005564432358369231 0.00047573717893101275
6860000000.0 0.0008225314668379724 0.00014805786486249417
6861000000.0 0.0006162483477964997 -8.006554708117619e-05
6862000000.0 0.00032910166191868484 -0.0003997573512606323
6863000000.0 0.0001743495522532612 -0.0006597733008675277
6864000000.0 6.354443030431867e-05 -0.0006413145456463099
6865000000.0 -0.00027716608019545674 -0.0005467285518534482
6866000000.0 -0.0005585924373008311 -0.00047773768892511725
6867000000.0 -0.0006871152436360717 1.1733466635632794e-05
6868000000.0 -0.0006263414397835732 0.00025976134929805994
6869000000.0 -0.0004717358679044992 0.0004083450767211616
6870000000.0 -0.00011459804227342829 0.0006991919362917542
6871000000.0 0.00021139404270797968 0.000595478864852339
6872000000.0 0.0003025679907295853 0.0005956678651273251
6873000000.0 0.000580236257519573 0.00016747400513850152
6874000000.0 0.0007436553714796901 -3.4990142012247816e-05
6875000000.0 0.0004881401837337762 -0.0003573200083337724
6876000000.0 0.00035099327214993536 -0.0005639533046633005
6877000000.0 -3.747979280888103e-05 -0.0005687462398782372
6878000000.0 -0.00012779443932231516 -0.0005981219583190978
6879000000.0 -0.00033758318750187755 -0.00043433831888251007
6880000000.0 -0.0005248645902611315 -0.00018097483552992344
6881000000.0 -0.0005970131605863571 0.00019721291027963161
6882000000.0 -0.0005242348997853696 0.00041124143172055483
6883000000.0 -0.00014026991266291589 0.0006857225671410561
6884000000.0 0.00013880745973438025 0.0007409460376948118
6885000000.0 0.00038918020436540246 0.0005595384282059968
6886000000.0 0.000703296682331711 0.0003911331295967102
6887000000.0 0.000757868227083236 7.646546146133915e-05
6888000000.0 0.0006888284115120769 -0.0003341282717883587
6889000000.0 0.0005545609747059643 -0.0005681256297975779
6890000000.0 4.937319317832589e-05 -0.0007125050760805607
6891000000.0 -0.0001631685736356303 -0.0007566825952380896
6892000000.0 -0.000614721910096705 -0.0005366210825741291
6893000000.0 -0.0006392104551196098 -0.0001891891733976081
6894000000.0 -0.000739287817850709 0.00011392166197765619
6895000000.0 -0.0005767602706328034 0.0005457968800328672
6896000000.0 -0.00030503777088597417 0.0007664983277209103
6897000000.0 0.00018092518439516425 0.0008038470987230539
6898000000.0 0.00047888324479572475 0.0006790162296965718
6899000000.0 0.0006963160121813416 0.0004898994811810553
6900000000.0 0.0008727939566597342 -8.334970334544778e-05
6901000000.0 0.000736783433239907 -0.0003552393172867596
6902000000.0 0.0003301554825156927 -0.0006086492794565856
6903000000.0 0.0001333344989689067 -0.0006696524797007442
6904000000.0 -0.0003004752506967634 -0.0005918077658861876
6905000000.0 -0.0005150138749741018 -0.0003872038796544075
6906000000.0 -0.0008892183541320264 -5.987991244182922e-05
6907000000.0 -0.000827339303214103 0.00019304300076328218
6908000000.0 -0.0005199717124924064 0.0006448633503168821
6909000000.0 -0.00015411351341754198 0.0007136654458008707
6910000000.0 0.00025490447296760976 0.0005961369606666267
6911000000.0 0.0003738948726095259 0.0005575244431383908
6912000000.0 0.0006855895044282079 0.00040674241608940065
6913000000.0 0.000777201377786696 -8.930308831622824e-05
6914000000.0 0.0006811105413362384 -0.00032219375134445727
6915000000.0 0.0003417585394345224 -0.0006487463251687586
6916000000.0 -6.115567521192133e-05 -0.0006233418826013803
6917000000.0 -0.0004095455806236714 -0.0005423819529823959
6918000000.0 -0.0005451301112771034 -0.00037654992775060236
6919000000.0 -0.0006345321889966726 -7.707299664616585e-05
6920000000.0 -0.0007538349600508809 0.00015582317428197712
6921000000.0 -0.0006054593250155449 0.00039911657222546637
6922000000.0 -0.00027804228011518717 0.0006412172224372625
6923000000.0 0.00013833082630299032 0.0007271142676472664
6924000000.0 0.0004497431218624115 0.0005390619626268744
6925000000.0 0.0005258494638837874 0.00026687848730944097
6926000000.0 0.0006924785557202995 -1.0415002179797739e-05
6927000000.0 0.0005684185307472944 -0.00036321976222097874
6928000000.0 0.00041960677481256425 -0.000646064174361527
6929000000.0 8.712961425771937e-05 -0.0007231376366689801
6930000000.0 -0.00026017174241133034 -0.0006296265055425465
6931000000.0 -0.0004748979117721319 -0.0004644297296181321
6932000000.0 -0.0006737529765814543 -0.00026163007714785635
6933000000.0 -0.0006684367544949055 0.00018648892000783235
6934000000.0 -0.0005110232159495354 0.0004368448571767658
6935000000.0 -0.00028213197947479784 0.0006099172169342637
6936000000.0 0.00011145795724587515 0.0006858668639324605
6937000000.0 0.0003968915552832186 0.0005944115109741688
6938000000.0 0.0004221058334223926 0.00037737260572612286
6939000000.0 0.0008005329291336238 9.526341455057263e-05
6940000000.0 0.0007045824895612895 -0.0004006546223536134
6941000000.0 0.00041600113036110997 -0.0005645863129757345
6942000000.0 0.00015420721319969743 -0.0006865285686217248
6943000000.0 -0.0002336580801056698 -0.0007626725127920508
6944000000.0 -0.0006282686372287571 -0.000617547077126801
6945000000.0 -0.0006858124397695065 -0.00024945277255028486
6946000000.0 -0.000760739843826741 0.00017254801059607416
6947000000.0 -0.0005995242390781641 0.0005124164163134992
6948000000.0 -0.0003563503560144454 0.0008136104443110526
6949000000.0 3.5669330827658996e-05 0.0007730554789304733
6950000000.0 0.00042620650492608547 0.0007652149652130902
6951000000.0 0.0007885717786848545 0.0004256941028870642
6952000000.0 0.0008996418328024447 -4.683995575760491e-05
6953000000.0 0.0007945466786623001 -0.00046419736463576555
6954000000.0 0.0004092091112397611 -0.0007422103080898523
6955000000.0 1.0438726349093486e-05 -0.0009966489160433412
6956000000.0 -0.00045310964924283326 -0.0007820189348421991
6957000000.0 -0.0008476490038447082 -0.000481709954328835
6958000000.0 -0.0008469526655972004 -0.00016689069161657244
6959000000.0 -0.000884875247720629 0.00039313852903433144
6960000000.0 -0.0006105605862103403 0.0008404739201068878
6961000000.0 -0.00014311047561932355 0.0010306030744686723
6962000000.0 0.0003359000547789037 0.0009759039967320859
6963000000.0 0.0006544123752973974 0.0006415143143385649
6964000000.0 0.0009194582235068083 0.00019787505152635276
6965000000.0 0.0008417186909355223 -0.0003225319378543645
6966000000.0 0.0007022486533969641 -0.0005383829120546579
6967000000.0 0.00033324313699267805 -0.0009442713344469666
6968000000.0 -0.00016105250688269734 -0.0008056352380663157
6969000000.0 -0.000468937010737136 -0.0007658597314730287
6970000000.0 -0.000831363839097321 -0.0003046781348530203
6971000000.0 -0.000853130710311234 4.868397081736475e-05
6972000000.0 -0.0007537376950494945 0.00048154796240851283
6973000000.0 -0.0004097518394701183 0.0008388465503230691
6974000000.0 2.641385253809858e-05 0.0007648161263205111
6975000000.0 0.00041289342334493995 0.00073162408079952
6976000000.0 0.0007666880846954882 0.0003509975504130125
6977000000.0 0.0008596080588176847 6.348724127747118e-05
6978000000.0 0.0007470202981494367 -0.0003915005945600569
6979000000.0 0.0006505331257358193 -0.0005774404271505773
6980000000.0 0.00015015630924608558 -0.0008477900410071015
6981000000.0 -0.00020299346942920238 -0.0007229828624986112
6982000000.0 -0.0006515556597150862 -0.0005904689314775169
6983000000.0 -0.0006908652721904218 -0.00029725729837082326
6984000000.0 -0.0006762784323655069 2.7417607270763256e-05
6985000000.0 -0.0005140374414622784 0.00040385997272096574
6986000000.0 -0.0004111932357773185 0.0006738635711371899
6987000000.0 -3.692328027682379e-05 0.0007793710683472455
6988000000.0 0.0003495358396321535 0.0007327800849452615
6989000000.0 0.0007069677230902016 0.0004432455461937934
6990000000.0 0.0006292816251516342 0.00018902093870565295
6991000000.0 0.000602026644628495 -0.00024635056615807116
6992000000.0 0.000610425544437021 -0.0005558782140724361
6993000000.0 0.00019866941147483885 -0.0006815803935751319
6994000000.0 -0.000172276035300456 -0.0007417860324494541
6995000000.0 -0.0006177048198878765 -0.0006587828393094242
6996000000.0 -0.0006579444161616266 -0.0003090129466727376
6997000000.0 -0.000694173329975456 9.435139509150758e-05
6998000000.0 -0.0006859021377749741 0.0003563264908734709
6999000000.0 -0.00035657398984767497 0.000647809705697
7000000000.0 -4.990832167095505e-05 0.0008123285952024162
