! Created with skrf 1.10.0 (http://scikit-rf.org).
# Hz S RI R 50.0 
!freq ReS11 ImS11
!
6000000000.0 0.0005233529373072088 0.001202800776809454
6001000000.0 0.0010259627597406507 0.00099045573733747
6002000000.0 0.0012976755388081074 0.00027228586259298027
6003000000.0 0.0012993497075513005 -0.0002189054066548124
6004000000.0 0.0009012179798446596 -0.0008759135380387306
6005000000.0 0.00044584323768503964 -0.0012819822877645493
6006000000.0 -8.168018393917009e-05 -0.001241863239556551
6007000000.0 -0.0007603525300510228 -0.0009660205105319619
6008000000.0 -0.0011828666320070624 -0.0003560344921424985
6009000000.0 -0.001096058520488441 5.389505986386212e-06
6010000000.0 -0.0010363199980929494 0.0005693128914572299
6011000000.0 -0.0005043379496783018 0.0011483033886179328
6012000000.0 5.685199721483514e-05 0.0012265322729945183
6013000000.0 0.0003860277065541595 0.0010787477949634194
6014000000.0 0.0009955780114978552 0.0005754638114012778
6015000000.0 0.0012232162989675999 8.860886737238616e-05
6016000000.0 0.0011067173909395933 -0.00041051284642890096
6017000000.0 0.0007617896771989763 -0.0008971319766715169
6018000000.0 0.00021775459754280746 -0.001078951288945973
6019000000.0 -0.00022545384126715362 -0.0009363198187202215
6020000000.0 -0.0007052857545204461 -0.0007715436513535678
6021000000.0 -0.0010367627255618572 -0.00035343729541637003
6022000000.0 -0.0011415511835366488 -2.932448660430964e-05
6023000000.0 -0.0009249842842109501 0.0006135820876806974
6024000000.0 -0.0004984101979061961 0.0009685598779469728
6025000000.0 -4.439980330062099e-05 0.0009499070583842695
6026000000.0 0.00046713388292118907 0.0009684808319434524
6027000000.0 0.0007027295650914311 0.0005316874594427645
6028000000.0 0.0009170417906716466 -2.1340747480280697e-05
6029000000.0 0.000852717726957053 -0.00024033324734773487
6030000000.0 0.0005833214381709695 -0.0008089353214018047
6031000000.0 0.00023027088900562376 -0.0010243109427392483
6032000000.0 -0.0003143769863527268 -0.0008873139158822596
6033000000.0 -0.000647433684207499 -0.0006887735216878355
6034000000.0 -0.0008775703608989716 -0.0003463268221821636
6035000000.0 -0.0009157293825410306 9.00361337698996e-05
6036000000.0 -0.0006845282623544335 0.0004579574160743505
6037000000.0 -0.0005118310800753534 0.0006817387184128165
6038000000.0 -0.00011307003296678886 0.0008432630565948784
6039000000.0 0.00040190096478909254 0.0009556017466820776
6040000000.0 0.000760522554628551 0.0004937521880492568
6041000000.0 0.0009813286596909165 0.0001021500866045244
6042000000.0 0.0008480734541080892 -0.0002266623341711238
6043000000.0 0.0006267927819862962 -0.0006593390717171133
6044000000.0 0.00023352565767709166 -0.0008475514478050172
6045000000.0 -0.0001397758023813367 -0.0009383647702634335
6046000000.0 -0.0004679368867073208 -0.0006951087852939963
6047000000.0 -0.0008336288155987859 -0.0004074190219398588
6048000000.0 -0.0009183409856632352 6.123856110207271e-06
6049000000.0 -0.0008088762988336384 0.0004111749876756221
6050000000.0 -0.0006162708159536123 0.0007922432851046324
6051000000.0 -0.00016122701345011592 0.000996313407085836
6052000000.0 0.0002452477056067437 0.0007060545613057911
6053000000.0 0.0006842453149147332 0.0006017436971887946
6054000000.0 0.0008965989691205323 0.00012855105160269886
6055000000.0 0.0008851761813275516 -0.0002968918706756085
6056000000.0 0.0006882603629492223 -0.0005726322997361422
6057000000.0 0.00042087066685780883 -0.0008726657833904028
6058000000.0 -0.00015096194692887366 -0.0009310980676673353
6059000000.0 -0.0004531166050583124 -0.0008088522008620203
6060000000.0 -0.0007135111372917891 -0.0004040991188958287
6061000000.0 -0.000977767980657518 4.659934347728267e-05
6062000000.0 -0.0009344519348815084 0.00041705783223733306
6063000000.0 -0.0006030224030837417 0.0008501285337843001
6064000000.0 -0.00019064387015532702 0.0010840612230822444
6065000000.0 0.00032070305314846337 0.0007781311869621277
6066000000.0 0.0005641763564199209 0.0006886492483317852
6067000000.0 0.001056119566783309 0.0002348236448597163
6068000000.0 0.0007893308065831661 -0.0002388749417150393
6069000000.0 0.0007467056857421994 -0.0005047647864557803
6070000000.0 0.0003506950451992452 -0.0009415654931217432
6071000000.0 -0.00015015814278740436 -0.0010695396922528744
6072000000.0 -0.0005073589272797108 -0.0008187268394976854
6073000000.0 -0.0009866126347333193 -0.0006361749256029725
6074000000.0 -0.0011219591833651066 9.119406604440883e-05
6075000000.0 -0.0007765137124806643 0.0003965015639550984
6076000000.0 -0.0005047676968388259 0.000852319470141083
6077000000.0 -0.000241196365095675 0.0010761552257463336
6078000000.0 0.0004243070143274963 0.0010126768611371517
6079000000.0 0.0006369467591866851 0.0006760545657016337
6080000000.0 0.0008903779089450836 0.0002618743747007102
6081000000.0 0.0009856572141870856 -0.00037519459147006273
6082000000.0 0.0007325411424972117 -0.0005595723050646484
6083000000.0 0.0003240883816033602 -0.0010874276049435139
6084000000.0 -0.0001824206847231835 -0.0010312929516658187
6085000000.0 -0.0007494828896597028 -0.0009146340889856219
6086000000.0 -0.0009208910632878542 -0.0004256805405020714
6087000000.0 -0.0007993438048288226 8.46472175908275e-05
6088000000.0 -0.0009298143559135497 0.00045280420454218984
6089000000.0 -0.00041276015690527856 0.0008867615251801908
6090000000.0 -8.233251719502732e-06 0.0010004228679463267
6091000000.0 0.0002991809160448611 0.0009650223073549569
6092000000.0 0.0008319647167809308 0.00044881729991175234
6093000000.0 0.0011607024352997541 0.00017528295575175434
6094000000.0 0.0008116164826788008 -0.00017873391334433109
6095000000.0 0.0006437901756726205 -0.0007794452831149101
6096000000.0 0.00010402491898275912 -0.0010732420487329364
6097000000.0 -0.00025776136317290366 -0.0007913804147392511
6098000000.0 -0.0006785894511267543 -0.0008673334959894419
6099000000.0 -0.0008008735603652894 -0.0005172707024030387
6100000000.0 -0.0008643697365187109 0.0001421782944817096
6101000000.0 -0.0006091503892093897 0.0005831285379827023
6102000000.0 -0.00038595666410401464 0.0009202300570905209
6103000000.0 0.00016898503236006945 0.0009877291740849614
6104000000.0 0.0004179022216703743 0.0009121459443122149
6105000000.0 0.0005849345470778644 0.0005861290846951306
6106000000.0 0.0008411818416789174 0.00026611797511577606
6107000000.0 0.0008261536713689566 -0.0003548873064573854
6108000000.0 0.0006623495137318969 -0.0007652840577065945
6109000000.0 6.0430538724176586e-05 -0.0008582746959291399
6110000000.0 -1.0180629033129662e-05 -0.0007118561188690364
6111000000.0 -0.0005456064245663583 -0.0009480711305513978
6112000000.0 -0.0009670633589848876 -0.00033580404124222696
6113000000.0 -0.0010273245861753821 0.00010787958308355883
6114000000.0 -0.0008709793910384178 0.00042181930621154606
6115000000.0 -0.000580883992370218 0.0008576472173444927
6116000000.0 9.112241968978196e-05 0.0009618236217647791
6117000000.0 0.0004950484726577997 0.0008831216255202889
6118000000.0 0.0007349501829594374 0.0007390832179225981
6119000000.0 0.0009492720128037035 -0.00025692995404824615
6120000000.0 0.0010213302448391914 -0.0002598047722131014
6121000000.0 0.000748064776416868 -0.0005902029806748033
6122000000.0 0.00033201006590388715 -0.0012294449843466282
6123000000.0 -0.00011576677206903696 -0.001192667754366994
6124000000.0 -0.0008930647163651884 -0.0010906853713095188
6125000000.0 -0.0009288028231821954 -0.0004296063561923802
6126000000.0 -0.0010951803997159004 3.3757103665266186e-05
6127000000.0 -0.0010597527725622058 0.0007912078290246427
6128000000.0 -0.0002855630300473422 0.0010112698655575514
6129000000.0 0.00020762176427524537 0.0010370130185037851
6130000000.0 0.0005359337665140629 0.0008933826466090977
6131000000.0 0.0012014269595965743 0.0006287965807132423
6132000000.0 0.0011513002682477236 5.666888682753779e-05
6133000000.0 0.001147122005932033 -0.0004957560449838638
6134000000.0 0.0006263789255172014 -0.0009614578448235989
6135000000.0 0.00023868767311796546 -0.0013440168695524335
6136000000.0 -0.0005599225405603647 -0.001062742667272687
6137000000.0 -0.0007425292278639972 -0.0008194451220333576
6138000000.0 -0.0010349638760089874 -0.0004064930835738778
6139000000.0 -0.0010240452829748392 0.00016157765639945865
6140000000.0 -0.0008278074092231691 0.0009847410256043077
6141000000.0 -0.00024097226560115814 0.0009598101023584604
6142000000.0 7.072142034303397e-05 0.000861567270476371
6143000000.0 0.0006999807665124536 0.0007490312564186752
6144000000.0 0.001058564055711031 0.0006281182868406177
6145000000.0 0.0012860042043030262 -0.0002162260061595589
6146000000.0 0.0011167764896526933 -0.0006015994003973901
6147000000.0 0.0004646300512831658 -0.0010272340150550008
6148000000.0 9.327865700470284e-05 -0.0010653126519173384
6149000000.0 -0.000416620634496212 -0.001037311740219593
6150000000.0 -0.0008965340093709528 -0.0006182765937410295
6151000000.0 -0.0009065112681128085 -0.00032838471815921366
6152000000.0 -0.0009617704199627042 0.00036610683309845626
6153000000.0 -0.000636088487226516 0.0008050691103562713
6154000000.0 -0.0002894839853979647 0.0011485717259347439
6155000000.0 0.0002505064767319709 0.0009620106429792941
6156000000.0 0.0007102382951416075 0.00085877173114568
6157000000.0 0.0009581567137502134 0.00025956780882552266
6158000000.0 0.0009520710445940495 -8.086224261205643e-05
6159000000.0 0.0008644596091471612 -0.0004944801912643015
6160000000.0 0.0005543061415664852 -0.0007981100934557617
6161000000.0 -0.00017724708595778793 -0.0011032572947442532
6162000000.0 -0.00043368383194319904 -0.0010125194676220417
6163000000.0 -0.0008436680654995143 -0.00042062081047333777
6164000000.0 -0.0011718850582838058 -8.308616816066206e-05
6165000000.0 -0.0010358456056565046 0.00018581878975965083
6166000000.0 -0.0007262132130563259 0.0006620621425099671
6167000000.0 -0.000244492432102561 0.0009398460970260203
6168000000.0 0.00026565566076897085 0.0010316940024495125
6169000000.0 0.0007703400915488601 0.0007348075741901994
6170000000.0 0.0007974064792506397 0.0003275191120337695
6171000000.0 0.0010331285884603858 -0.00021759069932159036
6172000000.0 0.0009229161078110337 -0.0005260499310679734
6173000000.0 0.00037476574652828276 -0.0008966457098722458
6174000000.0 6.300676614046097e-05 -0.0010223651770502329
6175000000.0 -0.0004826104559469968 -0.0008900303510017693
6176000000.0 -0.0008107665926218033 -0.0005497494130395353
6177000000.0 -0.0008230411913245916 -0.00016351438534911722
6178000000.0 -0.0010928800329566002 0.0002581551671028137
6179000000.0 -0.0005935985245741904 0.0007276632823050022
6180000000.0 -0.00024672949803061783 0.001052134670317173
6181000000.0 0.0002584687026683241 0.001147433533333242
6182000000.0 0.000644247920718044 0.0007764449692331254
6183000000.0 0.001084940042346716 0.00037098900065757334
6184000000.0 0.0009590790723450482 -0.0001272551016882062
6185000000.0 0.0009079247829504311 -0.0005719939945265651
6186000000.0 0.0005344131495803595 -0.0009491028031334281
6187000000.0 0.00018366254516877234 -0.00109579146374017
6188000000.0 -0.00041579498792998493 -0.0008265237556770444
6189000000.0 -0.0010157094802707434 -0.0006663324311375618
6190000000.0 -0.0010885598603636026 -0.00013650440087076277
6191000000.0 -0.0009790672920644283 0.00031530592241324484
6192000000.0 -0.0007503601373173296 0.000996938324533403
6193000000.0 -0.0003364147269167006 0.001020154682919383
6194000000.0 0.00039189652306959033 0.0011383455712348223
6195000000.0 0.0007990621961653233 0.0009818163234740496
6196000000.0 0.0009815989760681987 0.0002619762090034783
6197000000.0 0.0010108619462698698 -0.0001456004974897951
6198000000.0 0.0008355058380402625 -0.0005820050137117505
6199000000.0 0.0005262723425403237 -0.0010202639969065785
6200000000.0 -0.00013162633695174009 -0.0011228856164962053
6201000000.0 -0.00041866462561301887 -0.0011098046088591218
6202000000.0 -0.0011245482601225376 -0.0005773493903689086
6203000000.0 -0.0012052716920152307 -4.460471245693043e-05
6204000000.0 -0.0010767541825771332 0.0005849652225151658
6205000000.0 -0.0007890334818512201 0.0009155332227237523
6206000000.0 -0.0002780658542178571 0.0011004486586898565
6207000000.0 0.0005175491678528488 0.0010858348105102777
6208000000.0 0.000864651461597532 0.0008703835192136467
6209000000.0 0.001122901914641261 0.0003041781310457736
6210000000.0 0.0010428073583170772 -0.0002623693726491183
6211000000.0 0.0008587027550674975 -0.0009491959935985506
6212000000.0 0.0003498233563732356 -0.001166595029644668
6213000000.0 -0.00012487312778830528 -0.001118923188187182
6214000000.0 -0.0007030514534562826 -0.0009495464037172496
6215000000.0 -0.0009672078303992748 -0.0004308249044697732
6216000000.0 -0.001259095617569983 -6.030127769918181e-05
6217000000.0 -0.0009766010334715247 0.0004767966456711292
6218000000.0 -0.0005710647674277425 0.000996459391899407
6219000000.0 -0.00017625180771574378 0.00116396090015769
6220000000.0 0.0003985374642070383 0.0011174404062330723
6221000000.0 0.0008635174599476159 0.0007052187575027347
6222000000.0 0.0012159993639215827 0.00013452414714265615
6223000000.0 0.0010442211059853435 -0.0003886951017193496
6224000000.0 0.0007100804941728711 -0.0008010341553017497
6225000000.0 0.00028200840461067855 -0.0010963903041556478
6226000000.0 -0.00028915214352309704 -0.0011145032476633787
6227000000.0 -0.0006825649761594832 -0.0009113854612223804
6228000000.0 -0.0010440516052767634 -0.0005231878603808582
6229000000.0 -0.001114827231504023 0.00016493342991452664
6230000000.0 -0.0008535439847037196 0.0008237937581725419
6231000000.0 -0.0003776938538067043 0.001001293188892305
6232000000.0 -7.532274321420118e-05 0.0010997323552146554
6233000000.0 0.0005840766825713217 0.0009240075014531612
6234000000.0 0.0009076148853637278 0.000584807712584734
6235000000.0 0.0010700542479753494 1.1818321581813507e-05
6236000000.0 0.0009767768206074834 -0.0005632111569866538
6237000000.0 0.0005874714115634561 -0.0007758159772492945
6238000000.0 0.0001910631835926324 -0.001061063609085977
6239000000.0 -0.00022058546892367303 -0.0011197940912097692
6240000000.0 -0.0006089949165470898 -0.0006770266918465495
6241000000.0 -0.0010828785598278046 -0.000282401277218014
6242000000.0 -0.0009834738448262215 0.000135450012749061
6243000000.0 -0.0006865598843432963 0.0006020674481987953
6244000000.0 -0.00036530065699480474 0.0009050028747878969
6245000000.0 3.636819383245893e-05 0.0011207136558368802
6246000000.0 0.0004594458150677383 0.0007707232143729925
6247000000.0 0.0009476469131186604 0.0006699591758660972
6248000000.0 0.0010684691369533539 0.00014324985386338085
6249000000.0 0.0009190218988806009 -0.0002749325940385461
6250000000.0 0.0005076075321994722 -0.0007745606708340347
6251000000.0 0.00018514253315515816 -0.0008296053856611252
6252000000.0 -0.0002557571860961616 -0.0008523137075826526
6253000000.0 -0.0007001697085797787 -0.0007877149037085474
6254000000.0 -0.000867974478751421 -0.00021830752666573972
6255000000.0 -0.001029276754707098 0.0001691224897513166
6256000000.0 -0.0007327120983973145 0.00047685374738648534
6257000000.0 -0.00035947284777648747 0.0008572696824558079
6258000000.0 0.0001407767558703199 0.0010456277523189783
6259000000.0 0.0005382447270676494 0.0008880412788130343
6260000000.0 0.0007022037752903998 0.0005822725943289697
6261000000.0 0.0008280855836346745 2.9676963094971143e-05
6262000000.0 0.00095606833929196 -0.0003555676667019725
6263000000.0 0.00040579985943622887 -0.000666016829200089
6264000000.0 0.00018738640937954187 -0.0008553334046155214
6265000000.0 -0.0002937332901638001 -0.0009553675190545619
6266000000.0 -0.0005852054455317557 -0.0006498776492662728
6267000000.0 -0.000922260049264878 -0.0004366653156466782
6268000000.0 -0.0008594752289354801 0.00018909346545115113
6269000000.0 -0.0007598208612762392 0.00040479176095686853
6270000000.0 -0.00037131007411517203 0.0008244693744927645
6271000000.0 -9.060716479325492e-07 0.0008630690863355994
6272000000.0 0.0003360315167810768 0.0007541486993432045
6273000000.0 0.0006333680357784033 0.0004222045827191323
6274000000.0 0.0008210867526941001 0.00017517631931696087
6275000000.0 0.0007657479145564139 -0.00034045279608108103
6276000000.0 0.000495558837428689 -0.0006180315394885838
6277000000.0 0.0002628195215947926 -0.0009825025917962193
6278000000.0 -0.00013617613876704127 -0.0008187564089894295
6279000000.0 -0.0005027446895837784 -0.0006612444412894547
6280000000.0 -0.0007496802136301994 -0.0003926374774891883
6281000000.0 -0.0009152225684374571 -6.835176463937387e-05
6282000000.0 -0.000719619682058692 0.00030448081088252366
6283000000.0 -0.0006359155522659421 0.0008041432593017817
6284000000.0 -6.350322655634955e-05 0.0008371173753403127
6285000000.0 0.00030637209420092404 0.0010021200869232416
6286000000.0 0.0005376976332627237 0.0007185363210737705
6287000000.0 0.0008056036895141006 0.00017077532538678497
6288000000.0 0.0008988546906039119 -0.0001463534717913717
6289000000.0 0.000810017460025847 -0.00044754636473953724
6290000000.0 0.0005608650972135365 -0.0009152306593023241
6291000000.0 -9.258326463168487e-05 -0.0011368677951395512
6292000000.0 -0.0004862180503550917 -0.0008556581451557577
6293000000.0 -0.000989994965493679 -0.0006163992802612484
6294000000.0 -0.0010276780230924487 -0.00010808865044964477
6295000000.0 -0.000957450654823333 0.00022748811170458794
6296000000.0 -0.0006151420529931784 0.0007667005411349237
6297000000.0 -0.0001678099943092093 0.000965669343713671
6298000000.0 0.00019437793525867164 0.0010706272441893816
6299000000.0 0.0007960807997733355 0.0008517499081790447
6300000000.0 0.0009851001668721437 0.0004399575409479439
6301000000.0 0.0011160362046211958 -0.00019045536464545876
6302000000.0 0.000994185684248805 -0.0007209090981632471
6303000000.0 0.00046688897418789566 -0.0011035349452868104
6304000000.0 -2.5093904696404934e-05 -0.001232568989507854
6305000000.0 -0.0005608262144960463 -0.0012276319321244955
6306000000.0 -0.0010019243927672505 -0.0005743844667449594
6307000000.0 -0.0014270138926804066 -1.4728851965628564e-05
6308000000.0 -0.0012091770768165588 0.0005283725331537426
6309000000.0 -0.0008389070280827582 0.0009207897237502038
6310000000.0 -0.0002544041781220585 0.0013257017126306891
6311000000.0 0.00048258574679493904 0.0011939766118302941
6312000000.0 0.0011901240795850754 0.0008539397385902703
6313000000.0 0.0012702033855021 0.00024061616568360478
6314000000.0 0.0012985472567379475 -0.0003176393511239439
6315000000.0 0.0010287516051903367 -0.0010361314052715898
6316000000.0 0.00024045446480158716 -0.0014473848277702928
6317000000.0 -0.0003977690648753196 -0.0013115830952301621
6318000000.0 -0.0010538522619754076 -0.000909173977561295
6319000000.0 -0.0013409553794190288 -0.00041573410271666944
6320000000.0 -0.0013379701413214207 0.0003203345404472202
6321000000.0 -0.0011128184851258993 0.0009243692038580775
6322000000.0 -0.00045328581472858787 0.0013493755832314491
6323000000.0 0.0002148624771507457 0.0013767052441835403
6324000000.0 0.0008563739247620106 0.0010368556249886751
6325000000.0 0.0012703441316261888 0.0005662700859829783
6326000000.0 0.001321100746281445 -0.00011682414333336055
6327000000.0 0.0010991604067385197 -0.0006445040344260633
6328000000.0 0.0006875450490042567 -0.0010917889885604382
6329000000.0 -4.637596066459082e-05 -0.0012212732108309865
6330000000.0 -0.0005387318669818342 -0.0011816306505352259
6331000000.0 -0.0010591563768684864 -0.0007162330439314246
6332000000.0 -0.001255533890798688 -7.981964881764725e-05
6333000000.0 -0.0011882111430168152 0.00046350047341547906
6334000000.0 -0.0007210253388620913 0.0008195424452424049
6335000000.0 -0.00022957305191084743 0.0011628455249592662
6336000000.0 0.0002591779630165547 0.0011102153221145272
6337000000.0 0.0008136340184137225 0.0008647762588225305
6338000000.0 0.0010558055946603417 0.0002894108765758574
6339000000.0 0.0011940778931602836 -9.852602670434862e-05
6340000000.0 0.0008578454726375639 -0.0005855216877534986
6341000000.0 0.00036154163535684347 -0.0009831557981669903
6342000000.0 -0.00017451230087317526 -0.0011431091697886586
6343000000.0 -0.0005964747397229075 -0.0009425939642824233
6344000000.0 -0.0009795522782951593 -0.0006594748701900244
6345000000.0 -0.001046793651767075 -5.292772766551934e-05
6346000000.0 -0.001054245512932539 0.00046875543193891644
6347000000.0 -0.0006925452034920454 0.0009069699444808066
6348000000.0 -0.0002802878152579069 0.0010449409019201994
6349000000.0 0.0002585725160315633 0.0009003409650176764
6350000000.0 0.0008214513072744012 0.0007003940991126001
6351000000.0 0.0009162502828985453 0.0003299012896604836
6352000000.0 0.0009314179187640548 -0.0002137938718078658
6353000000.0 0.0008052072953432798 -0.0005355223547667265
6354000000.0 0.00043145273230038583 -0.0009550979593768716
6355000000.0 -6.996225420152768e-05 -0.0009344883728772402
6356000000.0 -0.0005915726651437581 -0.0008719345787540078
6357000000.0 -0.0008124670712277293 -0.0004684420127887279
6358000000.0 -0.0010050456039607525 1.6908516045077704e-06
6359000000.0 -0.0009564303909428418 0.00042715008021332324
6360000000.0 -0.0006211706786416471 0.000713795016054064
6361000000.0 -0.0002828099823091179 0.0009401643183082342
6362000000.0 0.0002818408247549087 0.0009899726137518883
6363000000.0 0.0006679721409454942 0.0007315444527193904
6364000000.0 0.0009017730480991304 0.0002818579669110477
6365000000.0 0.000985157210379839 -0.0001991606259252876
6366000000.0 0.0006914580008015037 -0.0004817552398890257
6367000000.0 0.0004493722226470709 -0.0008938270038925111
6368000000.0 -3.176870450261049e-05 -0.0009513412951491773
6369000000.0 -0.00047746277414262295 -0.0009605062077753246
6370000000.0 -0.0008323959773406386 -0.0005536048556677997
6371000000.0 -0.000997003517113626 -0.0001649059704504907
6372000000.0 -0.000990337342955172 0.000405832048272714
6373000000.0 -0.0006290127639658749 0.0008045851136557758
6374000000.0 -0.0002493449137546122 0.0010713855735957623
6375000000.0 0.00022624603298027068 0.0010392137337476015
6376000000.0 0.0007028725231066346 0.0007494649034924805
6377000000.0 0.0009762737900018692 0.0003004644822794944
6378000000.0 0.001017118920572102 -0.00019835557031910866
6379000000.0 0.0008699339814484119 -0.0005340918432921171
6380000000.0 0.0003704476694110781 -0.0008860148373059928
6381000000.0 4.82282530356315e-06 -0.0010075635509565473
6382000000.0 -0.0004596214275807142 -0.0009557215962558985
6383000000.0 -0.0008119620033539832 -0.0005269915563985705
6384000000.0 -0.0009873916860669851 -0.0001358229637844488
6385000000.0 -0.0009020039578899741 0.0005011067260056734
6386000000.0 -0.0006309992750175297 0.0007963000680319965
6387000000.0 -0.0003195007157046348 0.0009927826467901468
6388000000.0 0.00026911255554296076 0.0010111480951309204
6389000000.0 0.0007470424752682447 0.0007514019380323589
6390000000.0 0.0010110312141478062 0.0003138362953905016
6391000000.0 0.0009502136963419616 -7.489313429687172e-05
6392000000.0 0.0008344442467205226 -0.0006374714430421591
6393000000.0 0.0004674943338613957 -0.0009512693504802883
6394000000.0 -6.82268655509688e-05 -0.001060550450347364
6395000000.0 -0.0004799813323188573 -0.001037858659401536
6396000000.0 -0.0008856709464453161 -0.0005161805893294513
6397000000.0 -0.000982962315902114 -7.298871059902012e-05
6398000000.0 -0.0010182586265727878 0.0003370004706084728
6399000000.0 -0.0007028135005384684 0.0007805334171280265
6400000000.0 -0.00016236401279456913 0.0011285230284556746
6401000000.0 0.0003373981162440032 0.0010744067840278149
6402000000.0 0.0007095598266460001 0.0007560104713775218
6403000000.0 0.0010283214505761862 0.00035464108805172145
6404000000.0 0.0010794979752972722 -0.00020731597032863647
6405000000.0 0.000849043601192534 -0.0007253917283378541
6406000000.0 0.0004946062690578401 -0.0010609965538606048
6407000000.0 -0.00010194092465098947 -0.0012139672180637717
6408000000.0 -0.0006206109537743032 -0.0009445672039873898
6409000000.0 -0.0010139689547941089 -0.00045272186980582774
6410000000.0 -0.0012183153303340077 -1.3754012798017357e-05
6411000000.0 -0.0010085906833410263 0.0006747192819602787
6412000000.0 -0.000629918125923723 0.0010987564455717802
6413000000.0 4.810598056792514e-06 0.0013385610654950142
6414000000.0 0.0005737208412028849 0.0011616271222010255
6415000000.0 0.0009534246055409312 0.0006385620799846947
6416000000.0 0.0012173955328762531 8.250593964476138e-06
6417000000.0 0.0010522501543164253 -0.00045878582750447094
6418000000.0 0.0006933007971383631 -0.0010003476636484265
6419000000.0 5.5386946769431233e-05 -0.0011582289589568973
6420000000.0 -0.0003642807132564485 -0.0011269940296187997
6421000000.0 -0.0009912410750985146 -0.0007353774853982031
6422000000.0 -0.0010500462958589196 -0.00019991859153378755
6423000000.0 -0.0010777008719742298 0.0004239421687088907
6424000000.0 -0.00067749316804111 0.0007866183877922595
6425000000.0 -0.00021203319192864 0.0010014725849032402
6426000000.0 0.00034200266236439347 0.0009984010830521584
6427000000.0 0.0006093581905588508 0.0008704251958988607
6428000000.0 0.0009487908100709319 0.00043614546302706003
6429000000.0 0.0010154717601835728 -0.0001857854804256931
6430000000.0 0.0007243857253342867 -0.0006268121069297194
6431000000.0 0.00032174744410440326 -0.0008363292436115444
6432000000.0 -0.00013405390200205147 -0.0010066600516438484
6433000000.0 -0.0004587726725731045 -0.0007005258230492473
6434000000.0 -0.0007826505461707711 -0.0004123710095882416
6435000000.0 -0.0008925650618039072 -0.00011564124724827707
6436000000.0 -0.0008342540240846574 0.0004591221222653985
6437000000.0 -0.0005445848219096661 0.0006487249629572034
6438000000.0 -0.0002229694655397907 0.0008515277877449989
6439000000.0 0.0003321375115774572 0.0008345530368387699
6440000000.0 0.0005933179636485875 0.0005858195363543928
6441000000.0 0.0007267437758855522 0.00019972432346548885
6442000000.0 0.0007938076741993427 -0.0001076029657269828
6443000000.0 0.0007510583382099867 -0.0004933010204695165
6444000000.0 0.00032065610866993666 -0.0007443149806931615
6445000000.0 -6.668770947726443e-05 -0.0007907139370217919
6446000000.0 -0.00045350281288847327 -0.0006823392468504608
6447000000.0 -0.0006240682560019195 -0.00035264299367554486
6448000000.0 -0.0008412998868152499 -0.0001315173285547644
6449000000.0 -0.0006722100079059601 0.0002751992433331907
6450000000.0 -0.0005349984858185053 0.0005479753017425537
6451000000.0 -0.00012957742728758603 0.0007579551893286407
6452000000.0 0.00019319189595989883 0.000705640995875001
6453000000.0 0.0004665552987717092 0.0005127426702529192
6454000000.0 0.0006694681942462921 0.0002440297103021294
6455000000.0 0.000734820612706244 -9.844513988355175e-05
6456000000.0 0.0005918804672546685 -0.0004322976747062057
6457000000.0 0.0003505091299302876 -0.0006349515169858932
6458000000.0 -1.626344419491943e-05 -0.0007367260986939073
6459000000.0 -0.0003487547510303557 -0.0005930230254307389
6460000000.0 -0.0005600115982815623 -0.0003888422215823084
6461000000.0 -0.0007189558236859739 -9.554158168612048e-05
6462000000.0 -0.0006609080010093749 0.00024108024081215262
6463000000.0 -0.0004499404167290777 0.0005267136730253696
6464000000.0 -0.00021487231424544007 0.0006662140949629247
6465000000.0 0.00013880555343348533 0.0006260633235797286
6466000000.0 0.0004119407385587692 0.0005703384522348642
6467000000.0 0.0007175932987593114 0.0003332067863084376
6468000000.0 0.0007573106558993459 6.18842068433878e-06
6469000000.0 0.0006350881303660572 -0.0003474097466096282
6470000000.0 0.0003284412086941302 -0.0006119561730884016
6471000000.0 2.3522739866166376e-05 -0.0007189107709564269
6472000000.0 -0.0002953184593934566 -0.0006716687930747867
6473000000.0 -0.0005006250576116145 -0.00042377764475531876
6474000000.0 -0.0006970168324187398 -0.00024658307665959
6475000000.0 -0.0007392253028228879 0.00016827561194077134
6476000000.0 -0.0004641502455342561 0.0005485620349645615
6477000000.0 -0.00026590563356876373 0.0006660681683570147
6478000000.0 0.00012297638750169426 0.0007490089628845453
6479000000.0 0.00045865244464948773 0.0005297973402775824
6480000000.0 0.0007151489262469113 0.0002986412728205323
6481000000.0 0.0007146698189899325 -6.384027801686898e-05
6482000000.0 0.0006680517690256238 -0.0003687822900246829
6483000000.0 0.00042850710451602936 -0.0006061133462935686
6484000000.0 2.070297887257766e-05 -0.0007099954527802765
6485000000.0 -0.00028479023603722453 -0.0006952130934223533
6486000000.0 -0.0006248502759262919 -0.0005003391997888684
6487000000.0 -0.000727480452042073 -6.728061271132901e-05
6488000000.0 -0.0007604455458931625 0.00017825067334342748
6489000000.0 -0.00045980678987689316 0.00047023725346662104
6490000000.0 -0.00024381681578233838 0.0007436414598487318
6491000000.0 0.00015900284051895142 0.0006948055815882981
6492000000.0 0.00045128969941288233 0.000575960730202496
6493000000.0 0.0006396896787919104 0.00032064583501778543
6494000000.0 0.0006751821492798626 -5.7089509937213734e-05
6495000000.0 0.0006441982113756239 -0.0003673025930766016
6496000000.0 0.0004495444882195443 -0.000682950543705374
6497000000.0 0.00011658835137495771 -0.0007285834290087223
6498000000.0 -0.00025377035490237176 -0.0007643876015208662
6499000000.0 -0.0005718260072171688 -0.0004921365762129426
6500000000.0 -0.0008219301817007363 -0.00020841002697125077
6501000000.0 -0.0007660601986572146 0.00022339003044180572
6502000000.0 -0.0005354105960577726 0.0005769984563812613
6503000000.0 -0.00024478690465912223 0.0006686203414574265
6504000000.0 9.068784129340202e-05 0.0007577395299449563
6505000000.0 0.0004335582198109478 0.0006400354322977364
6506000000.0 0.0007395921275019646 0.0003628060221672058
6507000000.0 0.0009075035341084003 -1.8554503185441718e-05
6508000000.0 0.000764697790145874 -0.00035491265589371324
6509000000.0 0.0005258090677671134 -0.0007076028268784285
6510000000.0 1.419688942405628e-05 -0.0009222919470630586
6511000000.0 -0.00030566114583052695 -0.0007305729086510837
6512000000.0 -0.0007036688621155918 -0.0006347288144752383
6513000000.0 -0.0009127549710683525 -0.00013724721793550998
6514000000.0 -0.0009231221047230065 0.00022724542941432446
6515000000.0 -0.0006415167590603232 0.0006924321642145514
6516000000.0 -0.0003374099906068295 0.0008518766844645143
6517000000.0 0.0001955321349669248 0.0009083382901735604
6518000000.0 0.0006327300216071308 0.0008445938001386821
6519000000.0 0.0008941549458540976 0.00042485195444896817
6520000000.0 0.0010353672550991178 -9.012832742882892e-05
6521000000.0 0.0009635902242735028 -0.0005026991129852831
6522000000.0 0.0005026660510338843 -0.0010515530593693256
6523000000.0 7.538268982898444e-05 -0.0010560324881225824
6524000000.0 -0.0005496633821167052 -0.0009843925945460796
6525000000.0 -0.0009544938802719116 -0.0006634316523559391
6526000000.0 -0.0012552639236673713 -0.00011740157060557976
6527000000.0 -0.00102175900246948 0.0005047524464316666
6528000000.0 -0.0007385479402728379 0.000986349768936634
6529000000.0 -7.066204852890223e-05 0.0011966746533289552
6530000000.0 0.0005395282641984522 0.0011758232722058892
6531000000.0 0.0010316232219338417 0.0007058550836518407
6532000000.0 0.0012032196391373873 0.00015770473692100495
6533000000.0 0.0011654563713818789 -0.0005802615778520703
6534000000.0 0.0006603050860576332 -0.0010634916834533215
6535000000.0 9.09342197701335e-05 -0.0012132982956245542
6536000000.0 -0.000525481766089797 -0.0010993053438141942
6537000000.0 -0.0009829765185713768 -0.0007659854018129408
6538000000.0 -0.00117614830378443 -0.00020108932221774012
6539000000.0 -0.0011207828065380454 0.0004055922036059201
6540000000.0 -0.0007373015978373587 0.000978957861661911
6541000000.0 -0.00023677355784457177 0.0011967417085543275
6542000000.0 0.0004476953763514757 0.0010572064202278852
6543000000.0 0.0008761751232668757 0.0007850404363125563
6544000000.0 0.001076762331649661 0.00022891454864293337
6545000000.0 0.000937317730858922 -0.000229723344091326
6546000000.0 0.0007560644880868495 -0.0006451487424783409
6547000000.0 0.00031573986052535474 -0.0009558406309224665
6548000000.0 -0.0001248581538675353 -0.0008868948789313436
6549000000.0 -0.0006253072642721236 -0.000811516831163317
6550000000.0 -0.0008944591972976923 -0.000438154733274132
6551000000.0 -0.0009989032987505198 -2.412241701676976e-05
6552000000.0 -0.0008572651422582567 0.00044794779387302697
6553000000.0 -0.00048801119555719197 0.000862891785800457
6554000000.0 -0.00010209865286014974 0.0009909359505400062
6555000000.0 0.00030585736385546625 0.000783744384534657
6556000000.0 0.0007202259730547667 0.0006564472569152713
6557000000.0 0.0008608422358520329 0.0001697321276878938
6558000000.0 0.0009344063582830131 -0.00024597145966254175
6559000000.0 0.0005598648567683995 -0.0005672284751199186
6560000000.0 0.00025522924261167645 -0.0008346543181687593
6561000000.0 -0.00010553123865975067 -0.0008904112037271261
6562000000.0 -0.0005525231244973838 -0.0006741037941537797
6563000000.0 -0.0008401840459555387 -0.0003142665955238044
6564000000.0 -0.0009169482509605587 9.496722668700386e-06
6565000000.0 -0.0007549861329607666 0.00037368497578427196
6566000000.0 -0.00046976545127108693 0.0007130117155611515
6567000000.0 1.3192511687520891e-05 0.0008708369568921626
6568000000.0 0.00032668374478816986 0.000890359457116574
6569000000.0 0.0005697736633010209 0.0005216780118644238
6570000000.0 0.0007952176965773106 0.0002595501428004354
6571000000.0 0.0008896035142242908 -0.0002461420663166791
6572000000.0 0.0006874017999507487 -0.0005802895757369697
6573000000.0 0.00028482842026278377 -0.0007205040892586112
6574000000.0 -0.00010987375571858138 -0.0008586895419284701
6575000000.0 -0.0005522360443137586 -0.000699331983923912
6576000000.0 -0.000775987165980041 -0.0004028776893392205
6577000000.0 -0.0008868352742865682 3.448881034273654e-05
6578000000.0 -0.0007181240362115204 0.0004177129885647446
6579000000.0 -0.0004717535339295864 0.0007975653861649334
6580000000.0 -6.0708000091835856e-05 0.0009824183071032166
6581000000.0 0.000297798978863284 0.0008369614370167255
6582000000.0 0.000747739162761718 0.0005736894672736526
6583000000.0 0.0008825892582535744 0.000203831194085069
6584000000.0 0.0008626101189292967 -0.0002553776721470058
6585000000.0 0.0007925219833850861 -0.0006832392537035048
6586000000.0 0.00021907784685026854 -0.0010052737779915333
6587000000.0 -0.00021887081675231457 -0.0008800679934211075
6588000000.0 -0.000698037794791162 -0.0007766921771690249
6589000000.0 -0.0008575454703532159 -0.000305166351608932
6590000000.0 -0.0009121134644374251 2.9190614441176876e-05
6591000000.0 -0.0007806383073329926 0.0006710213492624462
6592000000.0 -0.0004132134490646422 0.0009439284331165254
6593000000.0 0.00011714402353391051 0.000984864542260766
6594000000.0 0.0005522901192307472 0.0007858867174945772
6595000000.0 0.0008752899593673646 0.0003670952282845974
6596000000.0 0.0010432786075398326 -1.969127515621949e-05
6597000000.0 0.0008768910774961114 -0.0005911562475375831
6598000000.0 0.0005242169136181474 -0.0008249272941611707
6599000000.0 5.992911246721633e-05 -0.0009458561544306576
6600000000.0 -0.00041038371273316443 -0.0008788955747149885
6601000000.0 -0.0006944983033463359 -0.0006154406582936645
6602000000.0 -0.0009094729903154075 -4.1349270759383217e-05
6603000000.0 -0.0008777741459198296 0.00027396451332606375
6604000000.0 -0.0006716009229421616 0.0006460704025812447
6605000000.0 -0.00026503330445848405 0.0008756411261856556
6606000000.0 0.00026911121676675975 0.0007792521500959992
6607000000.0 0.0006009318167343736 0.0007091632578521967
6608000000.0 0.0008552565122954547 0.00018477010598871857
6609000000.0 0.0009618386975489557 -0.0001466150424676016
6610000000.0 0.0007833058480173349 -0.0004049328272230923
6611000000.0 0.000372245442122221 -0.0007002023048698902
6612000000.0 8.389382128370926e-05 -0.000872478645760566
6613000000.0 -0.00030861186678521335 -0.0007850875263102353
6614000000.0 -0.0007115090847946703 -0.0005111049977131188
6615000000.0 -0.0008213532855734229 -8.725544466869906e-05
6616000000.0 -0.0007341695018112659 0.0002560669672675431
6617000000.0 -0.0005793789750896394 0.000667997170239687
6618000000.0 -0.00029808643739670515 0.0008098193211480975
6619000000.0 0.000185082943062298 0.000886415655259043
6620000000.0 0.0004901509964838624 0.0005957111134193838
6621000000.0 0.0008580766152590513 0.0002578080748207867
6622000000.0 0.0008587533957324922 -4.905423702439293e-05
6623000000.0 0.0007031729910522699 -0.0004566930583678186
6624000000.0 0.00042127276537939906 -0.0007776216370984912
6625000000.0 -3.7509958929149434e-05 -0.0008683829219080508
6626000000.0 -0.00040685661952011287 -0.0007388742524199188
6627000000.0 -0.0008389503927901387 -0.0005018717492930591
6628000000.0 -0.0010027335956692696 2.424558078928385e-05
6629000000.0 -0.000877935322932899 0.00042239800677634776
6630000000.0 -0.0005832778406329453 0.0007425309740938246
6631000000.0 -7.416233711410314e-05 0.0009974149288609624
6632000000.0 0.0004156519134994596 0.0009122920455411077
6633000000.0 0.0007312835077755153 0.0007195803336799145
6634000000.0 0.0009542910847812891 0.000313772790832445
6635000000.0 0.0010157836368307471 -0.00019669340690597892
6636000000.0 0.0007092999876476824 -0.0007137302309274673
6637000000.0 0.0002584444882813841 -0.000888764625415206
6638000000.0 -0.0001381778420181945 -0.0010227992897853255
6639000000.0 -0.0005699751782231033 -0.0007465402595698833
6640000000.0 -0.0009292266331613064 -0.0003233547613490373
6641000000.0 -0.0010013266000896692 0.0002091507922159508
6642000000.0 -0.0007022889330983162 0.0005339460331015289
6643000000.0 -0.0003291659813839942 0.0008368468843400478
6644000000.0 0.0001023546137730591 0.0009130649850703776
6645000000.0 0.000540026230737567 0.0008009652374312282
6646000000.0 0.0008148849010467529 0.00033836986403912306
6647000000.0 0.000933611299842596 -2.158330062229652e-05
6648000000.0 0.0008104985463432968 -0.0005106590688228607
6649000000.0 0.0004835373256355524 -0.0007373555563390255
6650000000.0 2.5689447284094058e-05 -0.0008502847049385309
6651000000.0 -0.0003445734619162977 -0.0008228306542150676
6652000000.0 -0.0007748802891001105 -0.0005091394414193928
6653000000.0 -0.0009014520910568535 -0.00015465995238628238
6654000000.0 -0.0007157802465371788 0.00019558997882995754
6655000000.0 -0.0004835178842768073 0.0006408665212802589
6656000000.0 -0.00025521789211779833 0.0008653689292259514
6657000000.0 0.0001251797511940822 0.0008371261064894497
6658000000.0 0.0005109915509819984 0.0005551709327846766
6659000000.0 0.0007023148937150836 0.00028477664454840124
6660000000.0 0.0007606805884279311 -6.393513467628509e-05
6661000000.0 0.0006086697685532272 -0.00040651773451827466
6662000000.0 0.00042185085476376116 -0.000529283715877682
6663000000.0 9.799554391065612e-05 -0.000697283714544028
6664000000.0 -0.00020452917669899762 -0.0006135974545031786
6665000000.0 -0.000458731286926195 -0.000431863940320909
6666000000.0 -0.0007345695048570633 -0.00015567231457680464
6667000000.0 -0.0007028916152194142 0.00017711686086840928
6668000000.0 -0.0004984795232303441 0.0005066110752522945
6669000000.0 -0.00025039390311576426 0.0007546184933744371
6670000000.0 0.00013209324970375746 0.0007347295759245753
6671000000.0 0.000398862233851105 0.0004601579566951841
6672000000.0 0.0006436741095967591 0.0004388200759422034
6673000000.0 0.0005831844173371792 3.517580626066774e-05
6674000000.0 0.0006551932310685515 -0.0002862609107978642
6675000000.0 0.0004483443917706609 -0.0005129047785885632
6676000000.0 0.00021870341151952744 -0.0006998460157774389
6677000000.0 -0.00020719303574878722 -0.0007514569442719221
6678000000.0 -0.0005600500735454261 -0.0005474338540807366
6679000000.0 -0.0007170983008109033 -0.00018973338592331856
6680000000.0 -0.0007806284120306373 8.17439504317008e-05
6681000000.0 -0.0005531855276785791 0.0005071434425190091
6682000000.0 -0.00032266209018416703 0.0007092129671946168
6683000000.0 -2.4143493646988645e-05 0.0007640447583980858
6684000000.0 0.00033619636087678373 0.0008062520064413548
6685000000.0 0.0006596232997253537 0.000456751964520663
6686000000.0 0.0008583609596826136 0.0001002944991341792
6687000000.0 0.0008918357198126614 -0.00031033591949380934
6688000000.0 0.0005360102513805032 -0.0007473244913853705
6689000000.0 0.00011472796177258715 -0.0008969766786321998
6690000000.0 -0.00031001042225398123 -0.0008256943547166884
6691000000.0 -0.0005778004415333271 -0.0005686708027496934
6692000000.0 -0.0010121803497895598 -0.00025456471485085785
6693000000.0 -0.0009171259007416666 0.00021517547429539263
6694000000.0 -0.0007268926128745079 0.0005931959021836519
6695000000.0 -0.0003749910683836788 0.0007699736743234098
6696000000.0 0.00013979928917251527 0.0010358900763094425
6697000000.0 0.00046938363811932504 0.0008593329112045467
6698000000.0 0.0008113083895295858 0.00046704753185622394
6699000000.0 0.001143775531090796 -0.00011194109538337216
6700000000.0 0.0008484090794809163 -0.0006534003186970949
6701000000.0 0.0004310356162022799 -0.0009871122892946005
6702000000.0 -2.5985229513025843e-05 -0.001144571229815483
6703000000.0 -0.00046908928197808564 -0.0010186880826950073
6704000000.0 -0.0009179006447084248 -0.000525999057572335
6705000000.0 -0.001129821641370654 7.916911272332072e-05
6706000000.0 -0.0009797622915357351 0.0005099060363136232
6707000000.0 -0.0006148279644548893 0.0009673503809608519
6708000000.0 -0.0001588050799909979 0.0011093809735029936
6709000000.0 0.0003745383583009243 0.0010514138266444206
6710000000.0 0.0008453565533272922 0.0006805710727348924
6711000000.0 0.0011364765232428908 6.01497340539936e-05
6712000000.0 0.0009156528976745903 -0.0005513558280654252
6713000000.0 0.0007728472119197249 -0.0008389641880057752
6714000000.0 0.00021913551609031856 -0.00107066729106009
6715000000.0 -0.00037985245580784976 -0.001054789638146758
6716000000.0 -0.0007381740142591298 -0.0006395714590325952
6717000000.0 -0.0009581444319337606 -0.0001512162561994046
6718000000.0 -0.0009583277860656381 0.00023573967337142676
6719000000.0 -0.0008693649433553219 0.0007524592219851911
6720000000.0 -0.00039390698657371104 0.0009955433197319508
6721000000.0 6.452635716414079e-05 0.0008221145253628492
6722000000.0 0.0007105788099579513 0.0008838156936690211
6723000000.0 0.0009788454044610262 0.00040656569763086736
6724000000.0 0.001051801024004817 -0.0001438519248040393
6725000000.0 0.0009356386144645512 -0.000578758423216641
6726000000.0 0.0004892561119049788 -0.0010346511844545603
6727000000.0 -6.535183638334274e-05 -0.001042146934196353
6728000000.0 -0.000621901242993772 -0.0009021135629154742
6729000000.0 -0.0008409664733335376 -0.000579176121391356
6730000000.0 -0.0008466519066132605 -7.727470801910385e-05
6731000000.0 -0.0009924949845299125 0.00037091333069838583
6732000000.0 -0.0006082268664613366 0.0009147011442109942
6733000000.0 -0.00018827336316462606 0.001064932788722217
6734000000.0 0.0004949528956785798 0.000931618211325258
6735000000.0 0.000825308496132493 0.0004768052604049444
6736000000.0 0.0009591043344698846 0.00015269627328962088
6737000000.0 0.0009206768008880317 -0.0002044874563580379
6738000000.0 0.0005453486228361726 -0.0007745477487333119
6739000000.0 0.00019517487089615315 -0.0008884091512300074
6740000000.0 -0.0003883079916704446 -0.0009491544333286583
6741000000.0 -0.000788217643275857 -0.0005912762135267258
6742000000.0 -0.0010180893586948514 -0.0001656832464504987
6743000000.0 -0.0008052922785282135 0.00019236176740378141
6744000000.0 -0.0005914094508625567 0.000562768429517746
6745000000.0 -0.0002730369451455772 0.0008619248401373625
6746000000.0 9.079233859665692e-05 0.0009058990399353206
6747000000.0 0.0005308074178174138 0.0007732582744210958
6748000000.0 0.0006527656223624945 0.0003084872441831976
6749000000.0 0.0008190582739189267 -7.96285385149531e-05
6750000000.0 0.0006474690744653344 -0.0004098299250472337
6751000000.0 0.0003014863468706608 -0.0008068474126048386
6752000000.0 6.898373976582661e-05 -0.000768778845667839
6753000000.0 -0.00039154596743173897 -0.0006449514185078442
6754000000.0 -0.0006635049358010292 -0.00028441709582693875
6755000000.0 -0.0006915104459039867 -1.0352214303566143e-05
6756000000.0 -0.0006912947283126414 0.00021895417012274265
6757000000.0 -0.00032745901262387633 0.0005604094476439059
6758000000.0 -0.00012900443107355386 0.000589839939493686
6759000000.0 9.593232243787497e-05 0.0006307378062047064
6760000000.0 0.00031501511693932116 0.0005089889164082706
6761000000.0 0.0006164798978716135 0.00011855703633045778
6762000000.0 0.0006760990363545716 -0.0002815414918586612
6763000000.0 0.00043372774962335825 -0.0003573609865270555
6764000000.0 0.00023286067880690098 -0.0004902815562672913
6765000000.0 -5.9260022680973634e-05 -0.0004900268977507949
6766000000.0 -0.00018363680283073336 -0.0005663267802447081
6767000000.0 -0.0004832077247556299 -0.00040829452336765826
6768000000.0 -0.00042121217120438814 -1.2228279956616461e-05
6769000000.0 -0.0004163759876973927 8.582844020565972e-05
6770000000.0 -0.0003606458776630461 0.0002879227977246046
6771000000.0 -6.740943354088813e-05 0.0004932651063427329
6772000000.0 0.0001666569005465135 0.0004295266990084201
6773000000.0 0.0002389771252637729 0.0004466995596885681
6774000000.0 0.0003631346917245537 0.0002162216551369056
6775000000.0 0.00047256986727006733 1.135804268415086e-05
6776000000.0 0.0004703250015154481 -0.00017486816796008497
6777000000.0 0.00020461808890104294 -0.0003685896808747202
6778000000.0 6.401042628567666e-05 -0.0005795457400381565
6779000000.0 -9.582751226844266e-05 -0.00040784760494716465
6780000000.0 -0.0003247611748520285 -0.0003515548596624285
6781000000.0 -0.000588025024626404 -0.0001877586037153378
6782000000.0 -0.0005654917331412435 0.00016839071759022772
6783000000.0 -0.00045881644473411143 0.0003059087903238833
6784000000.0 -0.00019953897572122514 0.00046767343883402646
6785000000.0 2.8570166250574403e-05 0.0005601122393272817
6786000000.0 0.0003073340922128409 0.0005501342238858342
6787000000.0 0.00034377299016341567 0.0002752570144366473
6788000000.0 0.0005037981318309903 0.00015031266957521439
6789000000.0 0.000558950356207788 -0.0003252413298469037
6790000000.0 0.00043418671702966094 -0.00033877271926030517
6791000000.0 0.0001688776828814298 -0.00043801756692118943
6792000000.0 -4.86170501972083e-05 -0.0005042381817474961
6793000000.0 -0.0004357163270469755 -0.00045598027645610273
6794000000.0 -0.0006211261497810483 -0.0003773459466174245
6795000000.0 -0.0006472209934145212 0.00021716972696594894
6796000000.0 -0.0004943146486766636 0.00031208927975967526
6797000000.0 -0.00022169323347043246 0.0005013764603063464
6798000000.0 9.565282198309433e-06 0.0006051253294572234
6799000000.0 0.00032056268537417054 0.0005677976878359914
6800000000.0 0.0005459553794935346 0.00028635445050895214
6801000000.0 0.0007652838248759508 0.0001422836066922173
6802000000.0 0.0006639669300056994 -0.00033426994923502207
6803000000.0 0.0003101139736827463 -0.00046270585153251886
6804000000.0 3.9417369407601655e-05 -0.0007618555100634694
6805000000.0 -0.00023399486963171512 -0.0005337788606993854
6806000000.0 -0.0006153007270768285 -0.0004314797115512192
6807000000.0 -0.0007156896172091365 -1.8732807802734897e-05
6808000000.0 -0.0007519686478190124 0.00017642544116824865
6809000000.0 -0.0004137276264373213 0.0004596165963448584
6810000000.0 -0.00011981377610936761 0.000666523352265358
6811000000.0 0.00019222954870201647 0.0008430344751104712
6812000000.0 0.00048396128113381565 0.00048534246161580086
6813000000.0 0.0008627109928056598 0.0001969066506717354
6814000000.0 0.0008333561709150672 -0.00026620388962328434
6815000000.0 0.0005683883791789412 -0.00044058894854970276
6816000000.0 0.00021691445726901293 -0.0008432409376837313
6817000000.0 -0.00015004970191512257 -0.0008267703233286738
6818000000.0 -0.00038249901263043284 -0.0006951888208277524
6819000000.0 -0.0008190328371711075 -0.00022481368796434253
6820000000.0 -0.0008861475507728755 7.771592936478555e-05
6821000000.0 -0.0005937750684097409 0.0003440723812673241
6822000000.0 -0.00033139315200969577 0.0005607820930890739
6823000000.0 -1.7533744539832696e-05 0.0007923939265310764
6824000000.0 0.00038526783464476466 0.0005995141109451652
6825000000.0 0.0005380308721214533 0.0005083472351543605
6826000000.0 0.0008475337526760995 2.8649586965912022e-05
6827000000.0 0.0007358046714216471 -0.00028205232229083776
6828000000.0 0.00043174720485694706 -0.0005700940964743495
6829000000.0 0.00010710322385421023 -0.0006464801263064146
6830000000.0 -0.0002419466618448496 -0.0007690145284868777
6831000000.0 -0.0005452912882901728 -0.0005430286400951445
6832000000.0 -0.000832625140901655 -0.00019229222380090505
6833000000.0 -0.0007724896422587335 0.00019013803103007376
6834000000.0 -0.00045239695464260876 0.0005478271632455289
6835000000.0 -0.00033891762723214924 0.0007449057302437723
6836000000.0 0.00019327853806316853 0.0007589628803543746
6837000000.0 0.0004227660538163036 0.00051555794198066
6838000000.0 0.0007155534694902599 0.0004410012043081224
6839000000.0 0.0009138635941781104 -0.0001146912036347203
6840000000.0 0.0008886475116014481 -0.0004686742613557726
6841000000.0 0.0005617907736450434 -0.0008316297899000347
6842000000.0 0.00019205594435334206 -0.0009206066024489701
6843000000.0 -0.0002968648332171142 -0.00077130674617365
6844000000.0 -0.0005931094638071954 -0.0006161932833492756
6845000000.0 -0.0011432042811065912 -0.00013894618314225227
6846000000.0 -0.0008371502626687288 0.0003645035903900862
6847000000.0 -0.0006541197653859854 0.0008590610814280808
6848000000.0 -0.0001380144531140104 0.0010762347374111414
6849000000.0 0.00035455438774079084 0.0008709689718671143
6850000000.0 0.0006451143999584019 0.0009090506937354803
6851000000.0 0.0010748272761702538 0.00013470774865709245
6852000000.0 0.0011239860905334353 -0.00021295409533195198
6853000000.0 0.0008032552432268858 -0.0008013946935534477
6854000000.0 0.0002934255462605506 -0.0009675329201854765
6855000000.0 -0.0003325126017443836 -0.0010379034793004394
6856000000.0 -0.0007512407028116286 -0.0005902170669287443
6857000000.0 -0.0010537616908550262 -0.0004215796652715653
6858000000.0 -0.0008990072528831661 0.00037919677561149
6859000000.0 -0.0007801877218298614 0.0008395786280743778
6860000000.0 -0.000355454656528309 0.0008158726268447936
6861000000.0 0.0002510937338229269 0.001078978879377246
6862000000.0 0.0007370279054157436 0.000705020735040307
6863000000.0 0.0010142874671146274 0.00021834672952536494
6864000000.0 0.0009232881711795926 -0.0002753617591224611
6865000000.0 0.0008423184626735747 -0.0005802917294204235
6866000000.0 0.00028490248951129615 -0.001061251387000084
6867000000.0 1.0649349860614166e-05 -0.0008965835440903902
6868000000.0 -0.0004309645155444741 -0.0007947297999635339
6869000000.0 -0.0006567472009919584 -0.00042388957808725536
6870000000.0 -0.000953979033511132 -3.483994078123942e-05
6871000000.0 -0.0006875706021673977 0.00040742623968981206
6872000000.0 -0.00039679455221630633 0.0007244093576446176
6873000000.0 -6.138750450190855e-06 0.0007836295408196747
6874000000.0 0.0004757360147777945 0.000624386128038168
6875000000.0 0.0006397459656000137 0.0004457107570488006
6876000000.0 0.0008554414962418377 0.00011773917503887787
6877000000.0 0.0006651195581071079 -0.00021282173111103475
6878000000.0 0.0005188757786527276 -0.0005888494197279215
6879000000.0 0.0002769947168417275 -0.0007756151026114821
6880000000.0 -0.00019802129827439785 -0.0006584851071238518
6881000000.0 -0.00048479344695806503 -0.0006719162338413298
6882000000.0 -0.000823162030428648 -0.00028809375362470746
6883000000.0 -0.0007013033027760684 8.34036836749874e-05
6884000000.0 -0.0005327598191797733 0.0004474226734600961
6885000000.0 -0.0003227675915695727 0.0005286347004584968
6886000000.0 9.603408398106694e-05 0.0007451237179338932
6887000000.0 0.00022301249555312097 0.0006542156916111708
6888000000.0 0.000545961840543896 0.0004172895278315991
6889000000.0 0.0007170636672526598 0.0001063491145032458
6890000000.0 0.0006806963356211782 -0.00028088773251511157
6891000000.0 0.0005994100938551128 -0.0004914719029329717
6892000000.0 0.00016074276936706156 -0.0008189617074094713
6893000000.0 -8.571935177315027e-05 -0.0006563049973919988
6894000000.0 -0.00045637707808054984 -0.0005826873821206391
6895000000.0 -0.0006008606869727373 -0.00038407198735512793
6896000000.0 -0.000765069795306772 0.00021723525424022228
6897000000.0 -0.0006158507894724607 0.0004026830429211259
6898000000.0 -0.0003751505573745817 0.0007237822283059359
6899000000.0 -4.84367337776348e-05 0.000750556297134608
6900000000.0 0.0003630484570749104 0.0007399821188300848
6901000000.0 0.0007446515955962241 0.0003166369569953531
6902000000.0 0.0008241046452894807 5.68602372368332e-05
6903000000.0 0.0007798242149874568 -0.0002762647927738726
6904000000.0 0.0003990111290477216 -0.0006787269376218319
6905000000.0 5.375733962864615e-05 -0.0006338785751722753
6906000000.0 -0.00041663629235699773 -0.0008314348524436355
6907000000.0 -0.0005807796842418611 -0.0003696280182339251
6908000000.0 -0.0009046892519108951 -0.00013942274381406605
6909000000.0 -0.000721595948562026 0.00020307142403908074
6910000000.0 -0.0004691461508627981 0.0005444235284812748
6911000000.0 -0.0001408540119882673 0.0008001805399544537
6912000000.0 0.0003218958154320717 0.0005595929687842727
6913000000.0 0.000563585024792701 0.0006505203200504184
6914000000.0 0.000674123119097203 0.00024115787527989596
6915000000.0 0.000785649404861033 -5.06501855852548e-05
6916000000.0 0.0005517241661436856 -0.000371776259271428
6917000000.0 0.0002762955555226654 -0.000612345989793539
6918000000.0 -5.073771899333224e-05 -0.0006867041811347008
6919000000.0 -0.00038035944453440607 -0.0005915566580370069
6920000000.0 -0.0004796585126314312 -0.0003408772172406316
6921000000.0 -0.0006112795672379434 -5.839593359269202e-05
6922000000.0 -0.0007664186996407807 0.0003238907374907285
6923000000.0 -0.0004942954983562231 0.0005458881496451795
6924000000.0 -0.00013056783063802868 0.0007057872135192156
6925000000.0 0.0001248426124220714 0.000559092266485095
6926000000.0 0.000547779374755919 0.0004784293123520911
6927000000.0 0.00054353685118258 0.00013379180745687336
6928000000.0 0.0006871465593576431 -0.00020799541380256414
6929000000.0 0.0006027409108355641 -0.0004605535650625825
6930000000.0 0.00021002229186706245 -0.0004954871255904436
6931000000.0 -2.367099659750238e-05 -0.000575421960093081
6932000000.0 -0.0002478000824339688 -0.0006433070520870388
6933000000.0 -0.0006326708826236427 -0.00037306317244656384
6934000000.0 -0.0005515688098967075 2.9324990464374423e-05
6935000000.0 -0.0005190804949961603 0.00024840867263264954
6936000000.0 -0.00039861947880126536 0.00041648128535598516
6937000000.0 -0.00012428440095391124 0.0007456221501342952
6938000000.0 0.00015868741320446134 0.0007460787892341614
6939000000.0 0.0003176438040100038 0.0005211936077103019
6940000000.0 0.0006585738155990839 0.0002887872979044914
6941000000.0 0.0007291947840712965 -0.00010575203486951068
6942000000.0 0.0006037824787199497 -0.0003208541020285338
6943000000.0 0.0003151156706735492 -0.0006958807935006917
6944000000.0 0.00010436248703626916 -0.0007262789877131581
6945000000.0 -0.00032486944110132754 -0.0007393318228423595
6946000000.0 -0.00047386190271936357 -0.0005027009756304324
6947000000.0 -0.0007268877816386521 -0.00019042292842641473
6948000000.0 -0.0007644467405043542 0.00021005573216825724
6949000000.0 -0.00041820298065431416 0.00046483243932016194
6950000000.0 -0.00029250027728267014 0.0006278532091528177
6951000000.0 0.0002185268676839769 0.0006751347100362182
6952000000.0 0.00037835928378626704 0.0005974775413051248
6953000000.0 0.0006321986438706517 0.00027966388734057546
6954000000.0 0.0008358681807294488 -0.00015438211266882718
6955000000.0 0.0006296079372987151 -0.0005131676443852484
6956000000.0 0.0004002967325504869 -0.0007520726649090648
6957000000.0 -8.84566361492034e-06 -0.0008795042522251606
6958000000.0 -0.0003108032396994531 -0.000672848429530859
6959000000.0 -0.000810973288025707 -0.00046165974345058203
6960000000.0 -0.0008808688726276159 -9.241973020834848e-05
6961000000.0 -0.0008252402185462415 0.00036882978747598827
6962000000.0 -0.0004605415160767734 0.0007378054433502257
6963000000.0 -0.00016280192357953638 0.0008049294701777399
6964000000.0 0.00024476461112499237 0.000887736096046865
6965000000.0 0.0006356972735375166 0.0005809392896480858
6966000000.0 0.0008782587829045951 9.330539614893496e-05
6967000000.0 0.0009258743957616389 -0.00030140558374114335
6968000000.0 0.000541490619070828 -0.0006693398463539779
6969000000.0 0.00018324240227229893 -0.0008982324507087469
6970000000.0 -0.00022344761237036437 -0.0008906242437660694
6971000000.0 -0.0007246132590807974 -0.0007006218074820936
6972000000.0 -0.0008002971298992634 -0.00027665478410199285
6973000000.0 -0.0008903734269551933 0.00016910051635932177
6974000000.0 -0.0006472343229688704 0.0007029261905699968
6975000000.0 -0.0002955763484351337 0.0008859061636030674
6976000000.0 0.0002812830207403749 0.0009841914288699627
6977000000.0 0.0006191770662553608 0.0006738718366250396
6978000000.0 0.0008648148505017161 0.0004614594508893788
6979000000.0 0.0009243859676644206 -0.0001788436493370682
6980000000.0 0.000782319693826139 -0.0006128516979515553
6981000000.0 0.0003858812851831317 -0.0007744930335320532
6982000000.0 -1.7138983821496367e-05 -0.000878911348991096
6983000000.0 -0.00043781453859992325 -0.0007665844750590622
6984000000.0 -0.0007650944171473384 -0.0003212778829038143
6985000000.0 -0.0008507856400683522 -0.00022108564735390246
6986000000.0 -0.0007890419801697135 0.00029561331029981375
6987000000.0 -0.0006025347393006086 0.0006487242062576115
6988000000.0 -0.00017926785221789032 0.0008676679572090507
6989000000.0 2.000556924031116e-05 0.0007129114819690585
6990000000.0 0.0005915898364037275 0.0005038038361817598
6991000000.0 0.0007764039328321815 0.0002984856255352497
6992000000.0 0.0007665077573619783 -0.00010979940270772204
6993000000.0 0.0006006250041536987 -0.0003570749540813267
6994000000.0 0.00037295103538781404 -0.0006395445088855922
6995000000.0 -4.566030474961735e-05 -0.0008495828951708972
6996000000.0 -0.0004133322217967361 -0.0008312890422530472
6997000000.0 -0.000790979596786201 -0.0005044822464697063
6998000000.0 -0.0009374511428177357 -9.752431651577353e-06
6999000000.0 -0.0008686981745995581 0.0003106085932813585
7000000000.0 -0.0005476665683090687 0.0004886072129011154
