! Created with skrf 1.10.0 (http://scikit-rf.org).
# Hz S RI R 50.0 
!freq ReS11 ImS11
!
6000000000.0 0.0004028879338875413 0.0002881518448702991
6001000000.0 0.0006775435758754611 0.0001766890927683562
6002000000.0 0.0007016206509433687 -0.00012319168308749795
6003000000.0 0.0003776164085138589 -0.0003202916122972965
6004000000.0 0.00033562007592990994 -0.0005093415384180844
6005000000.0 -0.0002010269818129018 -0.0006868171622045338
6006000000.0 -0.00044559521484188735 -0.0005104962619952857
6007000000.0 -0.0006977947195991874 -0.00037042010808363557
6008000000.0 -0.0005785063258372247 -4.989506851416081e-05
6009000000.0 -0.000342402548994869 0.0003313638735562563
6010000000.0 -0.00022417512082029134 0.0005088297766633332
6011000000.0 6.66550113237463e-05 0.0005256144213490188
6012000000.0 0.00016627008153591305 0.0004055974422954023
6013000000.0 0.00048237096052616835 0.0003577324387151748
6014000000.0 0.0005991891375742853 -2.3965900254552253e-05
6015000000.0 0.0005718740285374224 -9.047163621289656e-05
6016000000.0 0.00043862982420250773 -0.0003473268006928265
6017000000.0 9.439452696824446e-05 -0.00030733697349205613
6018000000.0 -7.795038254698738e-05 -0.0004690439673140645
6019000000.0 -0.0003143420908600092 -0.00040586316026747227
6020000000.0 -0.0004177429946139455 -0.0002857965009752661
6021000000.0 -0.0004500299983192235 1.2969651834282558e-05
6022000000.0 -0.00039496313547715545 0.00026296672876924276
6023000000.0 -0.0002991437795571983 0.00030580005841329694
6024000000.0 -9.782668348634616e-05 0.00041292246896773577
6025000000.0 0.00011781176726799458 0.00039402052061632276
6026000000.0 0.0001697707048151642 0.000376120995497331
6027000000.0 0.000498319452162832 0.0002753513981588185
6028000000.0 0.0004088943242095411 -2.01935999939451e-05
6029000000.0 0.00037242911639623344 -0.0001373999984934926
6030000000.0 0.0003643609816208482 -0.0003691445745062083
6031000000.0 0.00012684428656939417 -0.00042691713315434754
6032000000.0 -0.00018671067664399743 -0.0004314764228183776
6033000000.0 -0.00029178676777519286 -0.0003281778481323272
6034000000.0 -0.00038452722947113216 -6.722959369653836e-05
6035000000.0 -0.000542184105142951 5.3373994887806475e-05
6036000000.0 -0.0003079759480897337 0.0004970127483829856
6037000000.0 -0.00013491646677721292 0.00044170382898300886
6038000000.0 -3.1678406230639666e-05 0.0004767891368828714
6039000000.0 0.00015358440577983856 0.0004561030655167997
6040000000.0 0.0004119004006497562 0.00024361364194191992
6041000000.0 0.0005290507106110454 1.964265948117827e-06
6042000000.0 0.0005712263518944383 -0.00012231209257151932
6043000000.0 0.00013919491902925074 -0.0003888543869834393
6044000000.0 0.00010493551235413179 -0.0005881121614947915
6045000000.0 -0.00021118531003594398 -0.0005979559500701725
6046000000.0 -0.0004246686876285821 -0.0002728582767304033
6047000000.0 -0.0006109429523348808 -0.00010467251559020951
6048000000.0 -0.0005466861766763031 0.00021928726346231997
6049000000.0 -0.0004256010870449245 0.0003793020732700825
6050000000.0 -0.00014054017083253711 0.0006591995479539037
6051000000.0 0.00021354612545110285 0.0005896305665373802
6052000000.0 0.0004218168614897877 0.0005626700003631413
6053000000.0 0.0005515041411854327 0.00024933318491093814
6054000000.0 0.0004657866375055164 -1.5877134501351975e-05
6055000000.0 0.0005327988183125854 -0.00029377327882684767
6056000000.0 0.0003019367577508092 -0.00040546050877310336
6057000000.0 0.0001244679733645171 -0.0006977771990932524
6058000000.0 -0.0002989634231198579 -0.0005240089376457036
6059000000.0 -0.0004770052037201822 -0.0003534172719810158
6060000000.0 -0.0007206440204754472 -2.0969433535356075e-05
6061000000.0 -0.00044639382394962013 0.00020806585962418467
6062000000.0 -0.00034101452911272645 0.0004736518894787878
6063000000.0 -0.0001623994903638959 0.00046427114284597337
6064000000.0 0.00011961263226112351 0.0006760134128853679
6065000000.0 0.000348345551174134 0.0003837722179014236
6066000000.0 0.0005909965839236975 0.00023009063443168998
6067000000.0 0.0004238597466610372 -9.62409030762501e-05
6068000000.0 0.00041325727943331003 -0.00023763993522152305
6069000000.0 0.0002589578798506409 -0.0005296748131513596
6070000000.0 1.5019290003692731e-05 -0.0004612219345290214
6071000000.0 -0.0002556104154791683 -0.000510424084495753
6072000000.0 -0.0004591629549395293 -0.0003409125201869756
6073000000.0 -0.0008075195364654064 -1.2132029951317236e-05
6074000000.0 -0.0005258282762952149 2.4005315935937688e-05
6075000000.0 -0.0001878232869785279 0.0004534556355793029
6076000000.0 -0.00018187784007750452 0.00070759910158813
6077000000.0 0.00015594683645758778 0.0005036347429268062
6078000000.0 0.00020503377891145647 0.00042551563819870353
6079000000.0 0.0004614553472492844 6.100347036408493e-06
6080000000.0 0.0005271660047583282 -3.893998291459866e-05
6081000000.0 0.0005411955062299967 -0.00040183879900723696
6082000000.0 7.302658923435956e-05 -0.0005084692966192961
6083000000.0 6.911379750818014e-05 -0.00045510861673392355
6084000000.0 -0.00040728869498707354 -0.0004328044014982879
6085000000.0 -0.0003398567787371576 -0.0001755799021339044
6086000000.0 -0.0003157076716888696 -0.00022885474027134478
6087000000.0 -0.00032386527163907886 0.00015589786926284432
6088000000.0 -0.00010784490586956963 0.0004018672334495932
6089000000.0 -0.00017066800501197577 0.0005718686734326184
6090000000.0 0.00011336123134242371 0.0006148257525637746
6091000000.0 0.0007098944624885917 0.0003668874269351363
6092000000.0 0.0004740534059237689 0.00016351956583093852
6093000000.0 0.0006403746083378792 0.00010291872604284436
6094000000.0 0.0006263119867071509 -0.00022693307255394757
6095000000.0 0.00015953242836985737 -0.000660011894069612
6096000000.0 -3.238951467210427e-05 -0.00046406799810938537
6097000000.0 -0.00013366677740123123 -0.0005765758105553687
6098000000.0 -0.0003933534608222544 -0.0002815338084474206
6099000000.0 -0.0005518683465197682 0.00013586079876404256
6100000000.0 -0.0005988614284433424 0.00013036189193371683
6101000000.0 -0.0005410762969404459 0.0004948293790221214
6102000000.0 0.00010742375889094546 0.0006175934104248881
6103000000.0 0.00028448778903111815 0.0007055816822685301
6104000000.0 0.0005512312636710703 0.0004946204135194421
6105000000.0 0.0006636797334067523 0.00023877207422629
6106000000.0 0.00040104473009705544 -0.00011424935655668378
6107000000.0 0.00048843800323084 -0.0003697626234497875
6108000000.0 -1.9164679542882368e-05 -0.0006263984832912683
6109000000.0 7.221260602818802e-06 -0.0007545726257376373
6110000000.0 -0.0003694184124469757 -0.0005945977754890919
6111000000.0 -0.0005148621858097613 -0.00010964106331812218
6112000000.0 -0.0006832167855463922 5.983874871162698e-05
6113000000.0 -0.0005504090804606676 0.0002812664897646755
6114000000.0 -0.00010297488915966824 0.0005094640655443072
6115000000.0 -7.696649845456704e-06 0.0003878520510625094
6116000000.0 0.00021545881463680416 0.0004981080419383943
6117000000.0 0.00033537732088007033 0.00023814060841687024
6118000000.0 0.00035714093246497214 -7.366252975771204e-05
6119000000.0 0.00042294777813367546 -0.0003212650481145829
6120000000.0 0.0002862398396246135 -0.00040220015216618776
6121000000.0 9.788253009901382e-06 -0.0006221806397661567
6122000000.0 -0.0002607445348985493 -0.0004102069651708007
6123000000.0 -0.00010103250679094344 -0.0005048586172051728
6124000000.0 -0.00048287087702192366 -0.0003647266130428761
6125000000.0 -0.000476634013466537 -2.8261707484489307e-05
6126000000.0 -0.0004231372440699488 0.0004095829790458083
6127000000.0 -0.0001277845585718751 0.0003098479355685413
6128000000.0 0.0002134735113941133 0.0004271542129572481
6129000000.0 0.00032424519304186106 0.00041313303518109024
6130000000.0 0.0003962383489124477 0.0002530189522076398
6131000000.0 0.00034123053774237633 -8.254204294644296e-05
6132000000.0 0.0004305977199692279 -2.760585084615741e-05
6133000000.0 0.0002760016650427133 -0.0005044336430728436
6134000000.0 0.00014305317017715424 -0.0005029253079555929
6135000000.0 0.00015090726083144546 -0.0004904126981273293
6136000000.0 -0.00025067091337405145 -0.00020476203644648194
6137000000.0 -0.0003508284571580589 -6.836256943643093e-05
6138000000.0 -0.0005215186974965036 -0.00011360398639226332
6139000000.0 -0.0006438337732106447 0.0003403552109375596
6140000000.0 -0.00032663808087818325 0.0005513281794264913
6141000000.0 -0.0001724536414258182 0.0005135225364938378
6142000000.0 0.00022579058713745326 0.00034703221172094345
6143000000.0 0.0003233091556467116 0.00043083817581646144
6144000000.0 0.000679570424836129 0.0002967981272377074
6145000000.0 0.0004140101373195648 -0.00014520867262035608
6146000000.0 0.0003963111958000809 -0.00028145674150437117
6147000000.0 0.00014377047773450613 -0.000440481846453622
6148000000.0 -4.1637966205598786e-05 -0.0004934171447530389
6149000000.0 -0.00035508681321516633 -0.0006125813815742731
6150000000.0 -0.000560371670871973 -0.00016534699534531683
6151000000.0 -0.0004815364954993129 -7.00476739439182e-05
6152000000.0 -0.0006642983644269407 0.00023429375141859055
6153000000.0 -0.0004889215924777091 0.0005057431990280747
6154000000.0 -2.8342168661765754e-05 0.0006628271075896919
6155000000.0 0.00024088042846415192 0.0005665760254487395
6156000000.0 0.0003602616779971868 0.0003827225009445101
6157000000.0 0.00045526688336394727 3.978646782343276e-05
6158000000.0 0.0007521277293562889 -0.00011902683036169037
6159000000.0 0.0005363324889913201 -0.0004413189017213881
6160000000.0 0.00018809369066730142 -0.0004685876192525029
6161000000.0 -3.617939364630729e-05 -0.0004271802317816764
6162000000.0 -0.0003444270696491003 -0.0005330404383130372
6163000000.0 -0.0006227701087482274 -9.778405365068465e-05
6164000000.0 -0.0006409934139810503 1.8184680811828002e-05
6165000000.0 -0.00033019683905877173 0.00032853276934474707
6166000000.0 -0.00026979856193065643 0.0005032179178670049
6167000000.0 -0.0001636833039810881 0.0006370108458213508
6168000000.0 7.415988511638716e-05 0.0005049839382991195
6169000000.0 0.0003994067956227809 0.00032710368395783007
6170000000.0 0.0007237251847982407 7.715685933362693e-05
6171000000.0 0.0005217258585616946 -0.00011489545431686565
6172000000.0 0.00033877091482281685 -0.0004431966517586261
6173000000.0 0.00018204230582341552 -0.0006647921982221305
6174000000.0 -0.00024488053168170154 -0.0005359752685762942
6175000000.0 -0.0004088686837349087 -0.0004283835005480796
6176000000.0 -0.0005137588595971465 -2.0778204998350702e-05
6177000000.0 -0.0006857779808342457 0.00011494495993247256
6178000000.0 -0.00040618638740852475 0.0003910887462552637
6179000000.0 -1.503516159573337e-05 0.000587897258810699
6180000000.0 9.374169167131186e-05 0.0005117602995596826
6181000000.0 0.00016839355521369725 0.00043519653263501823
6182000000.0 0.00038033569580875337 0.00031109334668144584
6183000000.0 0.000451444648206234 -7.031403220025823e-05
6184000000.0 0.000484782038256526 -0.00045150844380259514
6185000000.0 0.0002723360375966877 -0.00046565564116463065
6186000000.0 5.738630352425389e-05 -0.00045768788550049067
6187000000.0 -0.0003428682393860072 -0.0005413269391283393
6188000000.0 -0.0006049848743714392 -0.00012778837117366493
6189000000.0 -0.00065288768382743 -1.680637251411099e-05
6190000000.0 -0.0004601882246788591 0.0002077379176625982
6191000000.0 -0.00023881439119577408 0.0004156002833042294
6192000000.0 -0.00015417271060869098 0.0005088013713248074
6193000000.0 0.0001939929643413052 0.0005792193696834147
6194000000.0 0.0003286912105977535 0.0003235351759940386
6195000000.0 0.00030945692560635507 0.00010494163871044293
6196000000.0 0.0005057452945038676 9.627047256799415e-05
6197000000.0 0.00040655353222973645 -0.0003325594589114189
6198000000.0 3.126317460555583e-05 -0.00030216589220799506
6199000000.0 0.00015334553609136492 -0.00034531040000729263
6200000000.0 -4.3635231122607365e-05 -0.00033053214428946376
6201000000.0 -0.00014900884707458317 -8.363676170120016e-05
6202000000.0 -0.0003635742759797722 -0.0002396900817984715
6203000000.0 -0.000481121038319543 0.00018605617515277117
6204000000.0 -0.00029006495606154203 0.00016768182103987783
6205000000.0 -0.00035384192597121 0.0004172532062511891
6206000000.0 -0.0001271494256798178 0.00023280057939700782
6207000000.0 9.124205826083198e-05 0.0004806754004675895
6208000000.0 0.00019091233843937516 0.00011741438356693834
6209000000.0 0.0005435905768536031 0.00010572555038379505
6210000000.0 0.0003219963109586388 -0.0002594649267848581
6211000000.0 0.0002588423085398972 -0.00014097263920120895
6212000000.0 4.8817815695656464e-05 -0.0003068785881623626
6213000000.0 6.376372039085254e-05 -0.0002712555869948119
6214000000.0 -5.3549396398011595e-05 -0.00026673905085772276
6215000000.0 -0.00041939798393286765 -0.00018975890998262912
6216000000.0 -0.00039129782817326486 -6.800286064390093e-05
6217000000.0 -0.0004248112963978201 6.0000293160555884e-05
6218000000.0 -0.000406821898650378 0.0002575475664343685
6219000000.0 6.89713197061792e-05 0.0005552048678509891
6220000000.0 0.0002599680155981332 0.0004777967697009444
6221000000.0 0.00021962454775348306 0.0001851441484177485
6222000000.0 0.0002604695037007332 0.00015969852393027395
6223000000.0 0.00036299534258432686 -3.221780207240954e-05
6224000000.0 0.00030578975565731525 -0.00020327784295659512
6225000000.0 0.00020086602307856083 -0.00035161740379408
6226000000.0 -0.00013438532187137753 -0.00041372960549779236
6227000000.0 -0.000296769809210673 -0.0003403429873287678
6228000000.0 -0.0002635255514178425 -0.00019442176562733948
6229000000.0 -0.0005187166971154511 -0.0001876382011687383
6230000000.0 -0.00040291380719281733 0.00024195053265430033
6231000000.0 -0.0004052520962432027 0.00028593826573342085
6232000000.0 -0.00014935772924218327 0.0006133131100796163
6233000000.0 0.00016715421224944293 0.0003439010470174253
6234000000.0 0.0003487568465061486 0.00020937516819685698
6235000000.0 0.0004565611307043582 2.3010641598375514e-05
6236000000.0 0.0003949232632294297 3.927784928237088e-05
6237000000.0 0.0004166376020293683 -0.00030982441967353225
6238000000.0 0.0002437009970890358 -0.00034240097738802433
6239000000.0 0.00010309615754522383 -0.0006009007338434458
6240000000.0 -8.709036774234846e-05 -0.00043504504719749093
6241000000.0 -0.0004295652324799448 -0.00024070602376013994
6242000000.0 -0.0005219989106990397 -0.00023282051552087069
6243000000.0 -0.0005592303932644427 0.00016655644867569208
6244000000.0 -0.0002749960112851113 0.00044245176832191646
6245000000.0 -0.0002965699532069266 0.000669747416395694
6246000000.0 5.7253528211731464e-05 0.0007556600612588227
6247000000.0 0.0004325417976360768 0.00039012462366372347
6248000000.0 0.0005009817541576922 0.00020692330144811422
6249000000.0 0.0005947064491920173 0.00012379761028569192
6250000000.0 0.0006275021005421877 -0.00033430327312089503
6251000000.0 0.0004040437634103 -0.0005279256729409099
6252000000.0 -2.4684026357135735e-05 -0.0006665588007308543
6253000000.0 -0.00040071667172014713 -0.00072000443469733
6254000000.0 -0.000603443942964077 -0.0005308311083354056
6255000000.0 -0.0006653943564742804 -0.0001012378343148157
6256000000.0 -0.0007997255306690931 6.138013850431889e-05
6257000000.0 -0.0006045998306944966 0.0005765592795796692
6258000000.0 -0.00027440860867500305 0.0008252064581029117
6259000000.0 0.00011627421918092296 0.0008672510739415884
6260000000.0 0.0005958048859611154 0.0007841901388019323
6261000000.0 0.0007559693767689168 0.00022484161308966577
6262000000.0 0.00091032893396914 -7.641467527719215e-05
6263000000.0 0.0007688177283853292 -0.0005944970180280507
6264000000.0 0.0004802412586286664 -0.0008929509203881025
6265000000.0 -2.7259929993306287e-05 -0.000995642738416791
6266000000.0 -0.0006566104711964726 -0.0008476373623125255
6267000000.0 -0.0008596063707955182 -0.0004308799107093364
6268000000.0 -0.0009837739635258913 0.00015597710444126278
6269000000.0 -0.0006734914495609701 0.0005890959873795509
6270000000.0 -0.00023300544125959277 0.0006386932218447328
6271000000.0 9.833120202529244e-06 0.0009070396772585809
6272000000.0 0.0004836822336073965 0.0007717075059190392
6273000000.0 0.0007066537509672344 0.0004977312637493014
6274000000.0 0.0009844150627031922 -2.532966209400911e-05
6275000000.0 0.0007987364078871906 -0.0006321440450847149
6276000000.0 0.0006417384138330817 -0.0008766613318584859
6277000000.0 4.679836274590343e-05 -0.000924732827115804
6278000000.0 -0.0004692425427492708 -0.0008732712012715638
6279000000.0 -0.0009138186578638852 -0.000427424703957513
6280000000.0 -0.0009849504567682743 0.00011869187437696382
6281000000.0 -0.0010498507181182504 0.00048124900786206126
6282000000.0 -0.0005100146518088877 0.000870253425091505
6283000000.0 -0.00024065669276751578 0.001000038580968976
6284000000.0 0.0005424572736956179 0.0008214303525164723
6285000000.0 0.0008867046562954783 0.0005492718191817403
6286000000.0 0.001061817747540772 0.0002472983323968947
6287000000.0 0.0008220947347581387 -0.0004353643162176013
6288000000.0 0.0005447811563499272 -0.0006616211030632257
6289000000.0 2.353437594138086e-05 -0.0008725034422241151
6290000000.0 -0.00017924017447512597 -0.0008379369974136353
6291000000.0 -0.0007691318169236183 -0.0005491034826263785
6292000000.0 -0.0009605006198398769 -0.0001996664359467104
6293000000.0 -0.0007905265083536506 0.00025607147836126387
6294000000.0 -0.0006557843880727887 0.0007282781880348921
6295000000.0 -0.0003867610066663474 0.0008493748027831316
6296000000.0 0.00022304830781649798 0.0007059292402118444
6297000000.0 0.0004014011356048286 0.0006866251351311803
6298000000.0 0.000705742510035634 0.00015544549387414008
6299000000.0 0.0007289755740202963 -8.446932770311832e-05
6300000000.0 0.0006790056941099465 -0.0005327060935087502
6301000000.0 0.0004402789054438472 -0.0007440344779752195
6302000000.0 0.00012257901835255325 -0.0005292302230373025
6303000000.0 -0.0003117118903901428 -0.0006401081336662173
6304000000.0 -0.0005976586835458875 -0.0004589780292008072
6305000000.0 -0.000659591518342495 -3.973319326178171e-05
6306000000.0 -0.0007043658406473696 0.00033875263761729
6307000000.0 -0.00039539739373140037 0.0004121467936784029
6308000000.0 -0.0001046625038725324 0.0006592264981009066
6309000000.0 9.905842307489365e-05 0.000745108409319073
6310000000.0 0.0004775867855641991 0.000464050768641755
6311000000.0 0.0006286839488893747 0.00017444895638618618
6312000000.0 0.0006604779628105462 -7.41760668461211e-05
6313000000.0 0.0005059688701294363 -0.00042927495087496936
6314000000.0 0.00036621151957660913 -0.000486334873130545
6315000000.0 1.2028444871248212e-05 -0.0005769346025772393
6316000000.0 -0.0003910819941665977 -0.0005059706745669246
6317000000.0 -0.0006251430022530258 -0.00041604312718845904
6318000000.0 -0.0006950568058528006 -3.1113049203668197e-07
6319000000.0 -0.0007034286390990019 0.00033219894976355135
6320000000.0 -0.00034075151779688895 0.00044580743997357786
6321000000.0 -0.00010569148435024545 0.0006551258848048747
6322000000.0 0.00031596451299265027 0.0005675498396158218
6323000000.0 0.0005147077026776969 0.0004503358213696629
6324000000.0 0.0006239916547201574 0.00022103443916421384
6325000000.0 0.0006813627551309764 -1.9016675651073456e-05
6326000000.0 0.00045919595868326724 -0.00039385134004987776
6327000000.0 0.00020846337429247797 -0.0006749894237145782
6328000000.0 -9.0926987468265e-05 -0.0005779477651230991
6329000000.0 -0.0004958228673785925 -0.0005065809236839414
6330000000.0 -0.0006357476231642067 -0.00021978045697323978
6331000000.0 -0.0004654493532143533 -2.4809164642647374e-06
6332000000.0 -0.0004058038757648319 0.00028077245224267244
6333000000.0 -0.00032269657822325826 0.00025111320428550243
6334000000.0 -5.5864675232442096e-05 0.00041946061537601054
6335000000.0 7.804115011822432e-05 0.0004981160745956004
6336000000.0 0.0004117093631066382 0.0003270876477472484
6337000000.0 0.0004158586962148547 0.00014296916197054088
6338000000.0 0.0003936893481295556 -0.0001737172860885039
6339000000.0 0.0003255846968386322 -0.0002597374841570854
6340000000.0 0.00014049523451831192 -0.0005522611318156123
6341000000.0 6.707767852276447e-07 -0.0004558007640298456
6342000000.0 -0.00024252718139905483 -0.0005719120381399989
6343000000.0 -0.000536882143933326 -0.00013374717673286796
6344000000.0 -0.0005738147301599383 4.5953089284012094e-05
6345000000.0 -0.0004702119331341237 0.00016948801930993795
6346000000.0 -0.0002833202888723463 0.0004354294796939939
6347000000.0 -0.00010604103590594605 0.00047373410779982805
6348000000.0 0.00016824222984723747 0.00038760885945521295
6349000000.0 0.00029644681490026414 0.00034492751001380384
6350000000.0 0.00041501352097839117 5.447773673949996e-06
6351000000.0 0.0003931459505110979 -0.00011686983634717762
6352000000.0 0.00040951513801701367 -0.00025969507987610996
6353000000.0 0.0002405858540441841 -0.00034437584690749645
6354000000.0 7.513918535551056e-05 -0.0005457994411699474
6355000000.0 -0.00014930889301467687 -0.0004592249752022326
6356000000.0 -0.00043448113137856126 -0.00018763152183964849
6357000000.0 -0.0004309604410082102 -3.057186404475942e-05
6358000000.0 -0.0004184045537840575 5.9958998463116586e-05
6359000000.0 -0.0003214048920199275 0.0003357945824973285
6360000000.0 -0.00022123316011857241 0.00046464413753710687
6361000000.0 2.7946971385972574e-05 0.0004697474360000342
6362000000.0 0.00024663523072376847 0.00039408268639817834
6363000000.0 0.00045000293175689876 0.00019002507906407118
6364000000.0 0.0003808924520853907 3.603108416427858e-05
6365000000.0 0.0004641661944333464 -0.00021125705097801983
6366000000.0 0.00031322878203354776 -0.0004421863122843206
6367000000.0 2.4434832084807567e-05 -0.0004303205059841275
6368000000.0 -0.00017846589616965503 -0.0004184325516689569
6369000000.0 -0.0002873750345315784 -0.00036382509279064834
6370000000.0 -0.000501004746183753 -7.750590157229453e-05
6371000000.0 -0.0005066279554739594 0.00014923905837349594
6372000000.0 -0.00031884104828350246 0.0003163595392834395
6373000000.0 -0.00010689305781852454 0.000373357703210786
6374000000.0 4.809212623513304e-05 0.0003909769293386489
6375000000.0 0.0003430158831179142 0.00038359989412128925
6376000000.0 0.00040879909647628665 0.00023224539472721517
6377000000.0 0.000454933091532439 1.3202167792769615e-05
6378000000.0 0.0004443889483809471 -0.00011698988237185404
6379000000.0 0.0002423350524622947 -0.0004918866325169802
6380000000.0 3.4343778679613024e-05 -0.0004953836323693395
6381000000.0 -0.00017867983842734247 -0.0004046960093546659
6382000000.0 -0.0002904991852119565 -0.0003346531593706459
6383000000.0 -0.00038074972690083086 -0.00014687074872199446
6384000000.0 -0.0003569572581909597 0.00010260202543577179
6385000000.0 -0.0003583960060495883 0.0002572971861809492
6386000000.0 -0.00021052070951554924 0.0003758690145332366
6387000000.0 3.237476630602032e-05 0.00037551470450125635
6388000000.0 0.00021911571093369275 0.00034846769995056093
6389000000.0 0.0004286514304112643 0.0003173367877025157
6390000000.0 0.0003749908646568656 2.7832302293973044e-05
6391000000.0 0.0003403743030503392 -0.00019831437384709716
6392000000.0 0.00024572163238190114 -0.0002410477609373629
6393000000.0 -8.322457870235667e-05 -0.0003903765173163265
6394000000.0 -5.44798094779253e-05 -0.0005438722437247634
6395000000.0 -0.00047131386236287653 -0.00019781423907261342
6396000000.0 -0.00041645721648819745 -0.0001712692464934662
6397000000.0 -0.0003538884047884494 8.053475903579965e-05
6398000000.0 -0.0003386668104212731 0.000307523732772097
6399000000.0 -0.0002485541335772723 0.00021098849538248032
6400000000.0 7.300966535694897e-05 0.00040183699456974864
6401000000.0 0.00012204244558233768 0.00042069979826919734
6402000000.0 0.0003714388294611126 0.00020480742387007922
6403000000.0 0.00045344489626586437 0.00011581309081520885
6404000000.0 0.0005245630163699389 -9.216881153406575e-06
6405000000.0 0.0003255822812207043 -0.00022954275482334197
6406000000.0 0.00012099340528948233 -0.00032181042479351163
6407000000.0 8.231720130424947e-05 -0.0003882068849634379
6408000000.0 -0.00015787106531206518 -0.000326429377309978
6409000000.0 -0.0003485205234028399 -0.0003156109305564314
6410000000.0 -0.00041760969907045364 -0.00010622125410009176
6411000000.0 -0.000456057779956609 0.00012791072367690504
6412000000.0 -0.00028198547079227865 0.000245704228291288
6413000000.0 -0.0002740228082984686 0.00042681439663283527
6414000000.0 -6.774417852284387e-05 0.0003752351913135499
6415000000.0 0.00017604115419089794 0.0006270087324082851
6416000000.0 0.000399103038944304 0.0002684387727640569
6417000000.0 0.0004212417115923017 4.734298272524029e-05
6418000000.0 0.0005151192890480161 -0.00013903991202823818
6419000000.0 0.0004418595344759524 -0.0003579120384529233
6420000000.0 0.0003256284398958087 -0.0006353671196848154
6421000000.0 6.432380905607715e-05 -0.0008357656770385802
6422000000.0 -0.00037488079397007823 -0.0005545978201553226
6423000000.0 -0.0007434564759023488 -0.0003746157162822783
6424000000.0 -0.0008196883136406541 -2.22918833969743e-06
6425000000.0 -0.0009165401570498943 0.0005005319253541529
6426000000.0 -0.000506356474943459 0.0011050410103052855
6427000000.0 0.0001802919287001714 0.00116062187589705
6428000000.0 0.0008070279727689922 0.0009890625951811671
6429000000.0 0.0013238247483968735 0.00032852496951818466
6430000000.0 0.0012784097343683243 -0.0004262748116161674
6431000000.0 0.0007030761917121708 -0.0011230220552533865
6432000000.0 -0.00016135282930918038 -0.0015688437270000577
6433000000.0 -0.0009558587917126715 -0.001292441156692803
6434000000.0 -0.0014679061714559793 -0.00042795317131094635
6435000000.0 -0.0014224059414118528 0.00045412173494696617
6436000000.0 -0.00108108960557729 0.0011089002946391702
6437000000.0 -0.0002853818004950881 0.0015215486055240035
6438000000.0 0.00037828434142284095 0.0012025384930893779
6439000000.0 0.0009290166781283915 0.0007777913706377149
6440000000.0 0.001207914436236024 0.00019926694221794605
6441000000.0 0.0010499567724764347 -0.00037135405000299215
6442000000.0 0.0007379488088190556 -0.0007273736991919577
6443000000.0 0.00025284162256866693 -0.0011025271378457546
6444000000.0 -0.0002896046789828688 -0.0010223824065178633
6445000000.0 -0.0007236767560243607 -0.0008106863242574036
6446000000.0 -0.0008057835511863232 -0.0003250250010751188
6447000000.0 -0.0009156752494163811 0.00011551982606761158
6448000000.0 -0.0006491727544926107 0.0005111387581564486
6449000000.0 -0.00030594266718253493 0.000608910690061748
6450000000.0 -5.720146145904437e-05 0.0007780494051985443
6451000000.0 0.00031305348966270685 0.0005833014147356153
6452000000.0 0.0006289961747825146 0.00034314842196181417
6453000000.0 0.0007008874090388417 0.00011468558659544215
6454000000.0 0.0006589866825379431 -0.00024276631302200258
6455000000.0 0.00038988934829831123 -0.00047980560339055955
6456000000.0 0.00031564838718622923 -0.0005588195053860545
6457000000.0 -0.00015946952044032514 -0.0006837687105871737
6458000000.0 -0.0003976175212301314 -0.0005524250445887446
6459000000.0 -0.0005042265984229743 -0.0002873464545700699
6460000000.0 -0.0005212396499700844 2.6166326279053465e-05
6461000000.0 -0.0005320507334545255 0.0002841606910806149
6462000000.0 -0.00033098566927947104 0.0004620592517312616
6463000000.0 -0.00013915645831730217 0.0005287667154334486
6464000000.0 0.0002027100999839604 0.00048282911302521825
6465000000.0 0.00037162084481678903 0.00041255299584008753
6466000000.0 0.0006088619702495635 0.00022006362269166857
6467000000.0 0.000500504276715219 -6.847314216429368e-05
6468000000.0 0.0004241552378516644 -0.0002354858152102679
6469000000.0 0.00025925066438503563 -0.00038942063110880554
6470000000.0 5.81944732402917e-05 -0.0005091038183309138
6471000000.0 -0.00018404163711238652 -0.0004142341495025903
6472000000.0 -0.0004081078805029392 -0.00031452186522074044
6473000000.0 -0.000504056632053107 -5.757475082646124e-05
6474000000.0 -0.0005181623855605721 7.118768553482369e-05
6475000000.0 -0.00033018452813848853 0.00029744469793513417
6476000000.0 -0.00017724567442201078 0.00043899097363464534
6477000000.0 4.4915741455042735e-05 0.0003864196187350899
6478000000.0 0.0003184203233104199 0.00034070105175487697
6479000000.0 0.0004699561686720699 0.0002756454632617533
6480000000.0 0.0005535556701943278 -1.2078427062078845e-05
6481000000.0 0.00047528682625852525 -0.0002596964768599719
6482000000.0 0.0003502223698887974 -0.0004959192592650652
6483000000.0 0.00013689631305169314 -0.0005790374125353992
6484000000.0 -0.00013618699449580163 -0.0005612755776382983
6485000000.0 -0.00028240043320693076 -0.00030760225490666926
6486000000.0 -0.000546919007319957 -0.00013923613005317748
6487000000.0 -0.0005518906400538981 0.00012224874808453023
6488000000.0 -0.0003834376984741539 0.00036868161987513304
6489000000.0 -0.000157794842380099 0.0005152909434400499
6490000000.0 7.993116014404222e-05 0.00047252350486814976
6491000000.0 0.0002432664332445711 0.0003545172803569585
6492000000.0 0.00036595744313672185 0.00018371760961599648
6493000000.0 0.0004956854972988367 -0.0001163488341262564
6494000000.0 0.00038704575854353607 -0.00025619546067900956
6495000000.0 0.00039731524884700775 -0.0003780104743782431
6496000000.0 0.00015032125520519912 -0.0006412033108063042
6497000000.0 -0.000279297266388312 -0.0003687571734189987
6498000000.0 -0.00034827148192562163 -0.0003767445159610361
6499000000.0 -0.0004960839287377894 3.264153565396555e-05
6500000000.0 -0.000465921446448192 0.0003663918178062886
6501000000.0 -0.0005919712712056935 0.0005099396221339703
6502000000.0 -4.3517346057342365e-05 0.0006207480328157544
6503000000.0 5.7727156672626734e-05 0.0005306390812620521
6504000000.0 0.00029465474653989077 0.00041456104372628033
6505000000.0 0.0004999781376682222 0.00028278923127800226
6506000000.0 0.0005974573432467878 2.7549553124117665e-05
6507000000.0 0.0005117921973578632 -0.00032730773091316223
6508000000.0 0.00030572558171115816 -0.00034626293927431107
6509000000.0 1.2295872693357524e-06 -0.0004468686238396913
6510000000.0 -0.00010375652345828712 -0.0004780861781910062
6511000000.0 -0.0004000068875029683 -0.00024785008281469345
6512000000.0 -0.0003911597013939172 -2.0416810002643615e-05
6513000000.0 -0.0004397670563776046 0.00014249923697207123
6514000000.0 -0.00025286574964411557 0.0003764254506677389
6515000000.0 -0.00023328655515797436 0.00038896064506843686
6516000000.0 5.349518687580712e-05 0.00040753005305305123
6517000000.0 0.00027068323106504977 0.00030891827191226184
6518000000.0 0.0004036087484564632 0.00019086891552433372
6519000000.0 0.00043729430763050914 3.074628330068663e-05
6520000000.0 0.0003184185770805925 -0.0002795092004816979
6521000000.0 0.00014517715317197144 -0.0003929855884052813
6522000000.0 4.053465090692043e-05 -0.0003984827490057796
6523000000.0 -0.00016059768677223474 -0.0004010908305644989
6524000000.0 -0.0002566410694271326 -0.0002479797985870391
6525000000.0 -0.0003202086372766644 -8.276450535049662e-05
6526000000.0 -0.0004212673520669341 8.226219506468624e-05
6527000000.0 -0.0002468372695147991 0.0001711261720629409
6528000000.0 -0.00018849920888897032 0.00025748531334102154
6529000000.0 -9.410487109562382e-05 0.0004103675892110914
6530000000.0 -5.224726191954687e-05 0.00015278725186362863
6531000000.0 0.0001444032823201269 0.00011580313002923504
6532000000.0 0.00022503611398860812 7.05775455571711e-05
6533000000.0 0.00011952171917073429 0.000257521984167397
6534000000.0 0.0005259749596007168 0.0001799993187887594
6535000000.0 0.00042100201244466007 -0.0005063357530161738
6536000000.0 0.00011020706733688712 -0.0009143094066530466
6537000000.0 -0.0003199012135155499 -0.0006918502040207386
6538000000.0 -0.0007136116037145257 -0.00032980373362079263
6539000000.0 -0.0007214388460852206 0.00010918296902673319
6540000000.0 -0.000586818263400346 0.00034836860140785575
6541000000.0 -0.000386976171284914 0.0005473964847624302
6542000000.0 -6.270718586165458e-06 0.0006595636950805783
6543000000.0 0.0002995263203047216 0.00043685195851139724
6544000000.0 0.00039300619391724467 0.0003527600783854723
6545000000.0 0.0005839235382154584 0.0001483653177274391
6546000000.0 0.000506595941260457 -0.0001881919160950929
6547000000.0 0.00035525046405382454 -0.0003994510043412447
6548000000.0 0.00020067808509338647 -0.0006350729963742197
6549000000.0 -0.00014377229672390968 -0.0005683911149390042
6550000000.0 -0.0004570141027215868 -0.00040907919174060225
6551000000.0 -0.0004865341470576823 -0.00020956039952579886
6552000000.0 -0.0005509222391992807 0.00015148519014474005
6553000000.0 -0.0002690227993298322 0.0002975832321681082
6554000000.0 -0.00021690815628971905 0.0004787077778019011
6555000000.0 3.404627932468429e-05 0.0004748029459733516
6556000000.0 0.00023852770391386002 0.0005103891016915441
6557000000.0 0.00040721584809944034 0.00027013535145670176
6558000000.0 0.0005618499126285315 -7.858034950913861e-05
6559000000.0 0.0004337466671131551 -0.0002370263682678342
6560000000.0 0.0003157192259095609 -0.00042720569763332605
6561000000.0 -1.3687968930753414e-05 -0.0004505004617385566
6562000000.0 -0.00018759742670226842 -0.00043861614540219307
6563000000.0 -0.00039332325104624033 -0.0002322951186215505
6564000000.0 -0.00047908377018757164 -0.00014721142360940576
6565000000.0 -0.00043338275281712413 0.0001639279944356531
6566000000.0 -0.0002883576962631196 0.000324222375638783
6567000000.0 -0.0002910279727075249 0.0003711590834427625
6568000000.0 1.532875648990739e-05 0.0004476910107769072
6569000000.0 0.0002165294426959008 0.00041090211016125977
6570000000.0 0.0004732315137516707 0.0003432516532484442
6571000000.0 0.00046527761151082814 4.887515387963504e-06
6572000000.0 0.0003865607432089746 -0.00016529005370102823
6573000000.0 0.0003183416265528649 -0.0003871933731716126
6574000000.0 0.00011679247836582363 -0.00034637266071513295
6575000000.0 -8.57634877320379e-05 -0.00046880345325917006
6576000000.0 -0.00037439161678776145 -0.00036788475699722767
6577000000.0 -0.0004283798625692725 -0.00023126721498556435
6578000000.0 -0.0005476005608215928 -2.065141779894475e-05
6579000000.0 -0.0003773515054490417 0.0003320950490888208
6580000000.0 -0.0002125251921825111 0.0004363209009170532
6581000000.0 8.66250047693029e-05 0.00039203662890940905
6582000000.0 0.00025120473583228886 0.0004808440862689167
6583000000.0 0.00039567798376083374 0.00036748641286976635
6584000000.0 0.0004513053281698376 8.793619053903967e-05
6585000000.0 0.0004893503501079977 -0.00011723145871656016
6586000000.0 0.0003183957014698535 -0.00035577284870669246
6587000000.0 0.00021340326929930598 -0.0005356406327337027
6588000000.0 -9.46618165471591e-05 -0.0005620570154860616
6589000000.0 -0.0003608916013035923 -0.0004562896501738578
6590000000.0 -0.0005419288645498455 -0.00027168801170773804
6591000000.0 -0.0005437216022983193 -1.3816601494909264e-05
6592000000.0 -0.00048346020048484206 0.000254325132118538
6593000000.0 -0.0002802550152409822 0.0003470699302852154
6594000000.0 7.023788839433109e-06 0.00058700458612293
6595000000.0 0.0001081454538507387 0.00041853738366626203
6596000000.0 0.0003929389640688896 0.0002884490822907537
6597000000.0 0.0004819743917323649 0.0001682189613347873
6598000000.0 0.0004441202327143401 -0.0001688228512648493
6599000000.0 0.00048125319881364703 -0.0004217644745949656
6600000000.0 0.00013630266766995192 -0.0004902807995676994
6601000000.0 -6.506087811430916e-05 -0.0005210847011767328
6602000000.0 -0.00023730912653263658 -0.0005287076928652823
6603000000.0 -0.0004086298868060112 -0.0003004673926625401
6604000000.0 -0.000533245678525418 -0.0001063382878783159
6605000000.0 -0.0006251190789043903 0.00015618914039805532
6606000000.0 -0.00039260819903574884 0.00048199648153968155
6607000000.0 -0.00014467576693277806 0.0005390692967921495
6608000000.0 0.00022141270164866 0.0004711363581009209
6609000000.0 0.00032663915771991014 0.0004532299644779414
6610000000.0 0.0005512940115295351 0.00020829783170484006
6611000000.0 0.0005876348004676402 -3.5344859497854486e-05
6612000000.0 0.0004952671588398516 -0.0003757176164072007
6613000000.0 0.00023999095719773322 -0.00045034545473754406
6614000000.0 9.200664862873964e-06 -0.0006920518353581429
6615000000.0 -0.00020971213234588504 -0.0005099375266581774
6616000000.0 -0.00043943518539890647 -0.0004125454870518297
6617000000.0 -0.0005425880663096905 -8.540020644431934e-05
6618000000.0 -0.0006611169083043933 0.00019557325867936015
6619000000.0 -0.0005120459827594459 0.0004135165363550186
6620000000.0 -0.0002586778427939862 0.0006753035122528672
6621000000.0 6.278171349549666e-05 0.0006986782536841929
6622000000.0 0.000439041672507301 0.0005288418033160269
6623000000.0 0.0006594768492504954 0.00030344061087816954
6624000000.0 0.000673411472234875 9.0187051682733e-05
6625000000.0 0.0007301755831576884 -0.00035841186763718724
6626000000.0 0.00041320885065943 -0.000656886666547507
6627000000.0 0.0001808980159694329 -0.000929706497117877
6628000000.0 -0.00037130166310817003 -0.0008103458676487207
6629000000.0 -0.0007437756867147982 -0.0007504455279558897
6630000000.0 -0.0009938355069607496 -0.0002680208417586982
6631000000.0 -0.00115715223364532 0.00019885784422513098
6632000000.0 -0.0009147028904408216 0.0008037450606934726
6633000000.0 -0.0003948788798879832 0.0012153724674135447
6634000000.0 0.000370279885828495 0.0012466390617191792
6635000000.0 0.0010263104923069477 0.0008118579280562699
6636000000.0 0.0015636676689609885 6.425540777854621e-05
6637000000.0 0.001229595160111785 -0.0007527024135924876
6638000000.0 0.0006508985534310341 -0.0014419341459870338
6639000000.0 -0.00040884059853851795 -0.0015492300735786557
6640000000.0 -0.0010535280453041196 -0.0009354621870443225
6641000000.0 -0.0015335397329181433 -0.00017178840062115341
6642000000.0 -0.0013633420458063483 0.0006383834988810122
6643000000.0 -0.000788127479609102 0.0012326069409027696
6644000000.0 8.765564416535199e-07 0.0013725952012464404
6645000000.0 0.0007701122085563838 0.0011180448345839977
6646000000.0 0.0010477633913978934 0.00040723694837652147
6647000000.0 0.0013444750802591443 2.5096618628595024e-05
6648000000.0 0.0009549919050186872 -0.0005730429547838867
6649000000.0 0.0006025194306857884 -0.0009351060725748539
6650000000.0 -3.946655851905234e-05 -0.0011192809324711561
6651000000.0 -0.0003358105896040797 -0.0008158478303812444
6652000000.0 -0.0007829498499631882 -0.0005968101904727519
6653000000.0 -0.0008610996301285923 -2.8057782401447184e-05
6654000000.0 -0.0007994133629836142 0.00035324133932590485
6655000000.0 -0.0005899526295252144 0.0004516472981777042
6656000000.0 -0.0002369539433857426 0.0007458523032255471
6657000000.0 0.00010411506082164124 0.0008015335770323873
6658000000.0 0.0004205378354527056 0.0005775823374278843
6659000000.0 0.000706585415173322 0.00033254685695283115
6660000000.0 0.0006882274174131453 -4.038498082081787e-05
6661000000.0 0.0005438646767288446 -0.00036909730988554657
6662000000.0 0.00034815052640624344 -0.0004892768920399249
6663000000.0 -3.616086542024277e-05 -0.0005803766543976963
6664000000.0 -0.00019261364650446922 -0.0005958397523500025
6665000000.0 -0.0005397945060394704 -0.00038610570481978357
6666000000.0 -0.0005354977329261601 -0.00020650149963330477
6667000000.0 -0.0004521626979112625 9.286362183047459e-05
6668000000.0 -0.0002822615497279912 0.0003624193777795881
6669000000.0 -0.00016006248188205063 0.0004906640388071537
6670000000.0 -4.629506292985752e-05 0.0005180545267648995
6671000000.0 0.00030593466362915933 0.00047038402408361435
6672000000.0 0.0005257349694147706 4.867529059993103e-05
6673000000.0 0.0004957225173711777 -2.231405596830882e-05
6674000000.0 0.00038186521851457655 -0.00033398435334675014
6675000000.0 0.0002560029679443687 -0.0003883234749082476
6676000000.0 -7.375272980425507e-05 -0.00046819966519251466
6677000000.0 2.612275693536503e-07 -0.00037481856998056173
6678000000.0 -0.00037731826887466013 -0.0003178644401486963
6679000000.0 -0.00045153716928325593 -6.102431143517606e-05
6680000000.0 -0.00032505294075235724 1.4564709090336692e-05
6681000000.0 -0.0002649590605869889 0.00015395774971693754
6682000000.0 -0.0002041151310550049 0.00040550873382017016
6683000000.0 8.22432994027622e-05 0.00034134293673560023
6684000000.0 0.0002579311840236187 0.00034331748611293733
6685000000.0 0.0003435396356508136 0.00013921453501097858
6686000000.0 0.0003247713320888579 9.523242624709383e-05
6687000000.0 0.00037286794395186007 -0.00018212234135717154
6688000000.0 0.00037975519080646336 -0.0002519973204471171
6689000000.0 0.00012244829849805683 -0.00038246141048148274
6690000000.0 3.491356983431615e-05 -0.0002928955655079335
6691000000.0 -0.0002826892305165529 -0.0003506587236188352
6692000000.0 -0.0003515458956826478 -0.00020045778364874423
6693000000.0 -0.00033486963366158307 -9.019685967359692e-05
6694000000.0 -0.00044371859985403717 5.774335659225471e-05
6695000000.0 -0.0002617807185743004 0.00022404293122235686
6696000000.0 -6.149337423266843e-05 0.0003399262495804578
6697000000.0 -8.341632928932086e-05 0.0002945992164313793
6698000000.0 0.00030665856320410967 0.00037055430584587157
6699000000.0 0.00022145023103803396 0.0002703667269088328
6700000000.0 0.00041577679803594947 -0.00010428724635858089
6701000000.0 0.00035461076186038554 -6.827274773968384e-05
6702000000.0 0.0003645185206551105 -0.0004791918909177184
6703000000.0 9.911498636938632e-05 -0.00031844060868024826
6704000000.0 -0.00020961574045941234 -0.00030359235825017095
6705000000.0 -0.0003885259502567351 -0.00026317406445741653
6706000000.0 -0.000288700801320374 -0.00014369541895575821
6707000000.0 -0.0002654468407854438 2.9181763238739222e-05
6708000000.0 -0.00040548780816607177 0.0002691652625799179
6709000000.0 -0.00010715643293224275 0.0003460143634583801
6710000000.0 2.301157792317099e-06 0.00035685067996382713
6711000000.0 9.221089567290619e-05 0.0004105420084670186
6712000000.0 0.0004282509326003492 0.00012230999709572643
6713000000.0 0.0004889132687821984 -3.601556954890839e-07
6714000000.0 0.00040724314749240875 -0.00025613009347580373
6715000000.0 0.00021503077005036175 -0.00029295930289663374
6716000000.0 0.00014776663738302886 -0.00038269918877631426
6717000000.0 -0.00021903024753555655 -0.0003506336943246424
6718000000.0 -0.00026695747510530055 -0.0003846725740004331
6719000000.0 -0.000509274541400373 -0.00015774686471559107
6720000000.0 -0.0005105676245875657 -7.28551167412661e-05
6721000000.0 -0.00026606483152136207 0.00018750627350527793
6722000000.0 -0.00028384587494656444 0.0003128994139842689
6723000000.0 -3.542776175891049e-05 0.00047857299796305597
6724000000.0 0.00017711680266074836 0.0003855358809232712
6725000000.0 0.0002865816350094974 0.0003135860024485737
6726000000.0 0.0004183671553619206 0.0001987511495826766
6727000000.0 0.0005873496411368251 -4.025107773486525e-05
6728000000.0 0.00037037418223917484 -0.00026214748504571617
6729000000.0 0.00013688266335520893 -0.00048490692279301584
6730000000.0 5.679214882547967e-05 -0.00044512536260299385
6731000000.0 -0.0003031170053873211 -0.0004363988700788468
6732000000.0 -0.0003844313323497772 -0.000295144971460104
6733000000.0 -0.0004820625181309879 -6.009180651744828e-06
6734000000.0 -0.00030957337003201246 0.0001792880502762273
6735000000.0 -0.00029454613104462624 0.00041769767994992435
6736000000.0 -5.6721055443631485e-05 0.0005760731874033809
6737000000.0 0.00011983504373347387 0.0005223575280979276
6738000000.0 0.00031551727443002164 0.0003584176884032786
6739000000.0 0.0004441658966243267 5.667266304953955e-05
6740000000.0 0.0006458862335421145 -0.00020733554265461862
6741000000.0 0.0004994819755665958 -0.00042325450340285897
6742000000.0 0.0002525347808841616 -0.0004881350614596158
6743000000.0 -1.2621639143617358e-05 -0.0004725870385300368
6744000000.0 -0.0002959400590043515 -0.0005638960283249617
6745000000.0 -0.0003720093809533864 -0.00040404850733466446
6746000000.0 -0.0007770599331706762 -7.724482316007197e-07
6747000000.0 -0.0005751443095505238 0.00026412043371237814
6748000000.0 -0.0003720586537383497 0.0005763942608609796
6749000000.0 -0.00011013842595275491 0.0006125316140241921
6750000000.0 0.00012158144090790302 0.0006572153652086854
6751000000.0 0.0004969984875060618 0.00051289884140715
6752000000.0 0.0006872112862765789 4.4600303226616234e-05
6753000000.0 0.0006601237109862268 -0.00034406621125526726
6754000000.0 0.0005804379470646381 -0.0007094215834513307
6755000000.0 0.0004421996127348393 -0.0008203457109630108
6756000000.0 -0.00021870972705073655 -0.0007548147696070373
6757000000.0 -0.000646405213046819 -0.0006664689281024039
6758000000.0 -0.0008651521638967097 -0.00020471093012019992
6759000000.0 -0.0008641132153570652 0.00021448351617436856
6760000000.0 -0.0006130547844804823 0.0006005647592246532
6761000000.0 -0.00035044134710915387 0.0006964646163396537
6762000000.0 8.180543954949826e-05 0.0008666596841067076
6763000000.0 0.00032303581247106194 0.0006856334512121975
6764000000.0 0.0007186837610788643 0.0002574405225459486
6765000000.0 0.0008452056208625436 -3.185009973094566e-06
6766000000.0 0.0008282209746539593 -0.00043538896716199815
6767000000.0 0.0003772770578507334 -0.0007569670560769737
6768000000.0 4.4763768528355286e-05 -0.0008311480632983148
6769000000.0 -0.0003352267958689481 -0.0008087944006547332
6770000000.0 -0.0006565267685800791 -0.0005103892763145268
6771000000.0 -0.0007572168833576143 -0.00010927684343187138
6772000000.0 -0.0007531883311457932 0.00027966793277300894
6773000000.0 -0.000700418371707201 0.000642462691757828
6774000000.0 -0.0003228943096473813 0.0008202334283851087
6775000000.0 0.0002320206695003435 0.000766051234677434
6776000000.0 0.0006143740029074252 0.0006401666905730963
6777000000.0 0.0009050479275174439 0.00026813754811882973
6778000000.0 0.0010494176531210542 -0.00014688409282825887
6779000000.0 0.0008644993067719042 -0.0005852204631082714
6780000000.0 0.000424015277530998 -0.0008242485928349197
6781000000.0 -0.00010580220987321809 -0.0008408587309531868
6782000000.0 -0.00029383611399680376 -0.0006516851717606187
6783000000.0 -0.0007284381426870823 -0.00037328171310946345
6784000000.0 -0.0006863449234515429 -8.143120794557035e-06
6785000000.0 -0.0007326103514060378 0.0004529889265540987
6786000000.0 -0.00039836313226260245 0.0006736625800840557
6787000000.0 -5.7273802667623386e-05 0.0010039671324193478
6788000000.0 0.0003628067788667977 0.0008074415381997824
6789000000.0 0.0008401489467360079 0.0004956143093295395
6790000000.0 0.0008331061108037829 6.684168329229578e-05
6791000000.0 0.0009280020021833479 -0.0003590763662941754
6792000000.0 0.0006225835531949997 -0.0007003089995123446
6793000000.0 0.0002368951973039657 -0.000887648668140173
6794000000.0 -0.0002952830109279603 -0.0009143708157353103
6795000000.0 -0.0006027330528013408 -0.0006695917109027505
6796000000.0 -0.0008445641142316163 -0.00030418916139751673
6797000000.0 -0.0007678239489905536 0.00022202491527423263
6798000000.0 -0.0008175051189027727 0.000523753056768328
6799000000.0 -0.00027772205066867173 0.0009193915175274014
6800000000.0 9.087062062462792e-05 0.0009006858454085886
6801000000.0 0.00036031968193128705 0.000705743848811835
6802000000.0 0.0007338275900110602 0.0005297899479046464
6803000000.0 0.0009407060570083559 -0.00010908680997090414
6804000000.0 0.000698118528816849 -0.0004589933669194579
6805000000.0 0.00045284043881110847 -0.0007233315263874829
6806000000.0 2.3411013899021782e-05 -0.0008433721959590912
6807000000.0 -0.00021436323004309088 -0.0007816709112375975
6808000000.0 -0.0005172883975319564 -0.00044933054596185684
6809000000.0 -0.0008151793153956532 -0.00019313202938064933
6810000000.0 -0.0009142194176092744 0.0003478210128378123
6811000000.0 -0.0005543053266592324 0.000554117897991091
6812000000.0 -0.00014660785382147878 0.0006478020804934204
6813000000.0 0.00019916311430279166 0.0009248988353647292
6814000000.0 0.00038277218118309975 0.0006589886615984142
6815000000.0 0.000756350695155561 0.0001741452288115397
6816000000.0 0.0007222172571346164 -0.00011817216000054032
6817000000.0 0.0006708246073685586 -0.0005165921756997705
6818000000.0 0.0004619251121766865 -0.0007268477929756045
6819000000.0 -1.998537300096359e-05 -0.0007325975457206368
6820000000.0 -0.0004886442329734564 -0.0006965106585994363
6821000000.0 -0.0006490194355137646 -0.0003995447768829763
6822000000.0 -0.0008325594244524837 -6.871550431242213e-05
6823000000.0 -0.0007131270249374211 0.00039561657467857003
6824000000.0 -0.0005174023099243641 0.0004047954280395061
6825000000.0 -0.0002594011020846665 0.00069145840825513
6826000000.0 0.00019541627261787653 0.000608105503488332
6827000000.0 0.0005186912603676319 0.00030297876219265163
6828000000.0 0.0005589904612861574 0.00015536611317656934
6829000000.0 0.0007007851381786168 -0.00013813527766615152
6830000000.0 0.0005230363458395004 -0.0004325347545091063
6831000000.0 0.00023596445680595934 -0.0007312470115721226
6832000000.0 -5.867848449270241e-05 -0.0006469792569987476
6833000000.0 -0.00038744983612559736 -0.00052188232075423
6834000000.0 -0.0006490782834589481 -0.00023149503977037966
6835000000.0 -0.0005800289800390601 1.3510676581063308e-05
6836000000.0 -0.0005630254163406789 0.0004180857795290649
6837000000.0 -0.0003159923362545669 0.0005853039328940213
6838000000.0 0.00011754693696275353 0.0007700325222685933
6839000000.0 0.0003227254201192409 0.0004718626441899687
6840000000.0 0.0006131174741312861 0.0004264280723873526
6841000000.0 0.0007695581298321486 1.2698837053903844e-05
6842000000.0 0.0006172359571792185 -0.00023940751270856708
6843000000.0 0.0002892344491556287 -0.0005380883230827749
6844000000.0 0.0001913067972054705 -0.00039789354195818305
6845000000.0 1.1288489986327477e-05 -0.0005634163389913738
6846000000.0 -0.0004158185329288244 -0.00048518163384869695
6847000000.0 -0.000534566177520901 -0.00020692725956905633
6848000000.0 -0.0004008751129731536 -2.2923059077584185e-05
6849000000.0 -0.0005936026573181152 0.00031832337845116854
6850000000.0 -0.00022529206762555987 0.0004964832914993167
6851000000.0 6.968096568016335e-05 0.0006753859343007207
6852000000.0 0.00015010165225248784 0.0005647785728797317
6853000000.0 0.0003207359986845404 0.0004108333960175514
6854000000.0 0.0005055664805695415 1.29747004393721e-05
6855000000.0 0.0004802121256943792 -8.572160732001066e-05
6856000000.0 0.0003847698390018195 -0.0002987335901707411
6857000000.0 9.098398732021451e-05 -0.0004911392461508512
6858000000.0 -8.108714246191084e-05 -0.0005749093252234161
6859000000.0 -0.0002954027440864593 -0.0003516373108141124
6860000000.0 -0.0005300717893987894 -0.00018005519814323634
6861000000.0 -0.0004975443007424474 6.41145816189237e-05
6862000000.0 -0.0004905231180600822 0.00017048738664016128
6863000000.0 -0.0003908498038072139 0.00048167112981900573
6864000000.0 4.859891487285495e-05 0.0005143085727468133
6865000000.0 0.0002655865391716361 0.00039399502566084266
6866000000.0 0.00038805956137366593 0.0002893339260481298
6867000000.0 0.00038925433182157576 4.707816697191447e-05
6868000000.0 0.000651705136988312 -4.201186675345525e-05
6869000000.0 0.00039546695188619196 -0.00036265942617319524
6870000000.0 0.00022424577036872506 -0.0004181991971563548
6871000000.0 -3.8891328586032614e-05 -0.0004543533141259104
6872000000.0 -0.0002633779658935964 -0.00042492308421060443
6873000000.0 -0.00043694311170838773 -0.00021914058015681803
6874000000.0 -0.0005765345995314419 1.1817242011602502e-05
6875000000.0 -0.0004904940724372864 0.00029012744198553264
6876000000.0 -0.00022850019740872085 0.0004402777412906289
6877000000.0 -5.537863034987822e-05 0.0006277118227444589
6878000000.0 0.0002817471686284989 0.00031048888922668993
6879000000.0 0.00048305134987458587 0.0004106456763111055
6880000000.0 0.0005815134500153363 0.00010065999231301248
6881000000.0 0.0004466747341211885 -0.00030623801285400987
6882000000.0 0.0002814260369632393 -0.0002492924686521292
6883000000.0 -4.298868589103222e-05 -0.0004561389214359224
6884000000.0 -0.00022898732277099043 -0.0002778194611892104
6885000000.0 -0.0002499147958587855 -0.0002696378214750439
6886000000.0 -0.0005924135912209749 -0.00014188926434144378
6887000000.0 -0.0003807625616900623 0.00024046549515333027
6888000000.0 -0.00025809952057898045 0.00040114467265084386
6889000000.0 -0.0001656607782933861 0.00043519600876607
6890000000.0 -6.598222057618841e-07 0.0004448780382517725
6891000000.0 0.00031889561796560884 0.0004073773743584752
6892000000.0 0.00026241986779496074 0.00015595123113598675
6893000000.0 0.00033914067898876965 -5.180406151339412e-05
6894000000.0 0.00026564422296360135 -0.00028200476663187146
6895000000.0 0.00021222003852017224 -0.0003604339435696602
6896000000.0 0.00018301898671779782 -0.0005096872337162495
6897000000.0 -2.273990867251996e-05 -0.0003336463705636561
6898000000.0 -0.00019862694898620248 -0.00026475873892195523
6899000000.0 -0.0002425905695417896 -0.00024401672999374568
6900000000.0 -0.00022700898989569396 0.00010375296551501378
6901000000.0 -0.00039166994974948466 3.844622551696375e-05
6902000000.0 -0.00014175710384733975 0.00011940205149585381
6903000000.0 -0.00021651393035426736 0.0002819427754729986
6904000000.0 8.735743904253468e-05 0.0004318513092584908
6905000000.0 0.00021216960158199072 0.00021083788305986673
6906000000.0 0.00030367771978490055 6.135743024060503e-05
6907000000.0 0.00035180681152269244 0.0002148947969544679
6908000000.0 0.0004017865867353976 -0.00013845555076841265
6909000000.0 0.0002749310515355319 -0.0002592572127468884
6910000000.0 2.285431037307717e-05 -0.0003814329975284636
6911000000.0 -7.453841681126505e-05 -0.0002514772058930248
6912000000.0 -0.0001664765295572579 -0.0003147575189359486
6913000000.0 -0.0003220081271138042 -0.00017212673265021294
6914000000.0 -0.0004156343638896942 0.00014762494538445026
6915000000.0 -0.0003492021933197975 0.00021037040278315544
6916000000.0 -0.00019106557010672987 0.00034673087066039443
6917000000.0 -0.00016667513409629464 0.0003787972964346409
6918000000.0 0.00020579241390805691 0.0003574620350264013
6919000000.0 0.00025290509802289307 0.0003132335259579122
6920000000.0 0.0005308801773935556 0.00015633903967682272
6921000000.0 0.0004938443889841437 -0.00020181105355732143
6922000000.0 0.0003974010469391942 -0.0004564303089864552
6923000000.0 0.0002617717836983502 -0.0005522359278984368
6924000000.0 -0.00018518301658332348 -0.0006581772468052804
6925000000.0 -0.0003661238879431039 -0.0005688414676114917
6926000000.0 -0.0005168092320673168 -0.0002926636370830238
6927000000.0 -0.0006428831839002669 5.3215440857457e-05
6928000000.0 -0.0004915989702567458 0.00035538780502974987
6929000000.0 -0.0003433085512369871 0.0006155997980386019
6930000000.0 9.796277299756184e-05 0.0007970411679707468
6931000000.0 0.0003297844959888607 0.0005631124367937446
6932000000.0 0.0005963771254755557 0.0001766011700965464
6933000000.0 0.0007584888371638954 -5.978477202006616e-05
6934000000.0 0.0006197174079716206 -0.00021827383898198605
6935000000.0 0.0003840196004603058 -0.0007091604638844728
6936000000.0 -3.3354914194205776e-05 -0.0006641006912104785
6937000000.0 -0.0004107304266653955 -0.0005456767976284027
6938000000.0 -0.0005345265381038189 -0.0004179754760116339
6939000000.0 -0.0006430894718505442 -7.868624379625544e-05
6940000000.0 -0.0007083979435265064 0.00026143057039007545
6941000000.0 -0.0005734347505494952 0.000584728957619518
6942000000.0 -0.00017631844093557447 0.0005753524601459503
6943000000.0 0.0001902607618831098 0.0006116452277638018
6944000000.0 0.00038856748142279685 0.0005730778211727738
6945000000.0 0.000695680093485862 0.00014073672355152667
6946000000.0 0.0008098579710349441 -0.00011876676580868661
6947000000.0 0.00038043229142203927 -0.0004219900001771748
6948000000.0 0.0002379413926973939 -0.0006855832180008292
6949000000.0 -6.777433009119704e-05 -0.0007026148377917707
6950000000.0 -0.0005469514871947467 -0.0005580037250183523
6951000000.0 -0.0007212861673906446 -0.00034699906245805323
6952000000.0 -0.0007467982941307127 0.00015482069284189492
6953000000.0 -0.0005200590239837766 0.00045511708594858646
6954000000.0 -0.00031443798798136413 0.0005841366364620626
6955000000.0 -2.1752855900558643e-05 0.0005625984631478786
6956000000.0 0.00026532611809670925 0.000603533408138901
6957000000.0 0.0005864003906026483 0.0003554431314114481
6958000000.0 0.0006575300940312445 3.308430314064026e-05
6959000000.0 0.0006898455903865397 -0.0004317631246522069
6960000000.0 0.00031950059928931296 -0.0004646323504857719
6961000000.0 9.806473826756701e-05 -0.0006179041229188442
6962000000.0 -0.00033874361542984843 -0.00061585329240188
6963000000.0 -0.00047686105244793 -0.0003827930777333677
6964000000.0 -0.0006711211754009128 -0.00017459395166952163
6965000000.0 -0.0005083812866359949 0.0002234076091554016
6966000000.0 -0.0005337083130143583 0.0003446266346145421
6967000000.0 -0.0002860254899132997 0.0006159875192679465
6968000000.0 5.7640554587123916e-06 0.0006072312244214118
6969000000.0 0.00043361011194065213 0.0004719317948911339
6970000000.0 0.0005288961692713201 0.00011022390390280634
6971000000.0 0.0005048289312981069 8.38636260596104e-05
6972000000.0 0.000519228691700846 -0.00020888741710223258
6973000000.0 0.00031726722954772413 -0.0004706530016846955
6974000000.0 8.01983624114655e-05 -0.0005343261291272938
6975000000.0 -0.0003568099928088486 -0.0004851818084716797
6976000000.0 -0.0004215010267216712 -0.00043378621921874583
6977000000.0 -0.0005483838031068444 -3.68859909940511e-05
6978000000.0 -0.0005148453055880964 0.00023809599224478006
6979000000.0 -0.0003748944727703929 0.0004176401416771114
6980000000.0 -0.00010666518210200593 0.0006087083020247519
6981000000.0 0.0001404523354722187 0.0004995437921024859
6982000000.0 0.0004089438880328089 0.0003716889477800578
6983000000.0 0.00038390379631891847 0.0002448850718792528
6984000000.0 0.0003861828881781548 -2.8683840355370194e-05
6985000000.0 0.0003474838158581406 -0.0002864553825929761
6986000000.0 0.0001292306842515245 -0.0005310525884851813
6987000000.0 -7.235172233777121e-05 -0.00039362310781143606
6988000000.0 -0.00011797641491284594 -0.00030483005684800446
6989000000.0 -0.0003034177061636001 -0.00017502396076451987
6990000000.0 -0.0003853709204122424 9.52184054767713e-05
6991000000.0 -0.00042072776705026627 9.273213800042868e-05
6992000000.0 -0.00015862879808992147 0.0003064704069402069
6993000000.0 -1.4353477126860525e-05 0.0005183679168112576
6994000000.0 6.647953705396503e-05 0.0004025564412586391
6995000000.0 0.00038326819776557386 0.00034447788493707776
6996000000.0 0.00041072702151723206 0.00014370788994710892
6997000000.0 0.0003562506753951311 -3.791971266764449e-06
6998000000.0 0.0004279880959074944 -9.598297765478492e-05
6999000000.0 3.9965601899893954e-05 -0.0003303679986856878
7000000000.0 0.00010993774776579812 -0.00030973742832429707
