! Created with skrf 1.10.0 (http://scikit-rf.org).
# Hz S RI R 50.0 
!freq ReS11 ImS11
!
6000000000.0 0.0003255055926274508 0.0005822198581881821
6001000000.0 0.0006366462912410498 0.00011761260975617915
6002000000.0 0.0006789012113586068 -6.682075763819739e-05
6003000000.0 0.0005207073409110308 -0.0004617281665559858
6004000000.0 0.0004110445734113455 -0.0005511515191756189
6005000000.0 -1.987598807318136e-05 -0.0007613648194819689
6006000000.0 -0.0002645838540047407 -0.0005398564971983433
6007000000.0 -0.0005417671054601669 -0.00031675517675466835
6008000000.0 -0.0007467803661711514 -4.712580994237214e-05
6009000000.0 -0.0007031186250969768 0.00045233379933051765
6010000000.0 -0.00021355316857807338 0.0005221817409619689
6011000000.0 -4.352939868113026e-05 0.0006498348666355014
6012000000.0 0.00021299361833371222 0.0005181258893571794
6013000000.0 0.00037588216946460307 0.0004431296547409147
6014000000.0 0.00048593644169159234 7.095612090779468e-05
6015000000.0 0.0006201243377290666 6.792854401282966e-05
6016000000.0 0.0004377440782263875 -0.0003394306404516101
6017000000.0 0.00013012396811973304 -0.0004850565455853939
6018000000.0 6.785973255318822e-06 -0.00047946706763468683
6019000000.0 -8.735892333788797e-05 -0.0003419176209717989
6020000000.0 -0.0003897426067851484 -0.0002049998875008896
6021000000.0 -0.0005793332820758224 2.192869214923121e-05
6022000000.0 -0.00039145530899986625 0.00015095887647476047
6023000000.0 -0.00039805672713555396 0.00032528661540709436
6024000000.0 -0.00025882062618620694 0.0004885865491814911
6025000000.0 -7.537424971815199e-05 0.0004298030980862677
6026000000.0 0.0001456823229091242 0.0003071612445637584
6027000000.0 0.00042922518332488835 0.00010242057032883167
6028000000.0 0.00041446814429946244 9.746732393978164e-05
6029000000.0 0.0003784986329264939 -0.00028002302860841155
6030000000.0 0.00043044198537245393 -0.00030180372414179146
6031000000.0 0.00015589689428452402 -0.0004047619004268199
6032000000.0 -9.622143261367455e-05 -0.000598820683080703
6033000000.0 -0.0003003963502123952 -0.00046421962906606495
6034000000.0 -0.0005106903845444322 -0.00018689608259592205
6035000000.0 -0.000492129591293633 5.780972423963249e-05
6036000000.0 -0.0005405022529885173 0.0003491325187496841
6037000000.0 -0.0001919456262839958 0.00042514654342085123
6038000000.0 -1.194184096675599e-05 0.0005249370005913079
6039000000.0 0.00015303971304092556 0.0005093372892588377
6040000000.0 0.00039600994205102324 0.0004304626490920782
6041000000.0 0.0005436103092506528 7.641490083187819e-05
6042000000.0 0.0005550016649067402 -0.00026675444678403437
6043000000.0 0.0005194543628022075 -0.0004098749195691198
6044000000.0 0.00018681297660805285 -0.000637096120044589
6045000000.0 -0.00016114975733216852 -0.00044170801993459463
6046000000.0 -0.00043869632645510137 -0.00039181578904390335
6047000000.0 -0.000563379202503711 -0.00017214301624335349
6048000000.0 -0.000696409260854125 9.59801982389763e-05
6049000000.0 -0.00046062361798249185 0.000468876474769786
6050000000.0 -0.00025288620963692665 0.0006457020062953234
6051000000.0 0.0001585145218996331 0.0005293422727845609
6052000000.0 0.0003234925679862499 0.00036502612056210637
6053000000.0 0.0006323742563836277 0.00018712149176280946
6054000000.0 0.0005111864884383976 -2.235252941318322e-05
6055000000.0 0.00046847693738527596 -0.0002927943132817745
6056000000.0 0.00036666644155047834 -0.0005679940222762525
6057000000.0 0.00010385381756350398 -0.0007148812292143703
6058000000.0 -0.0002916456724051386 -0.0004801339528057724
6059000000.0 -0.0003388931800145656 -0.0003563900536391884
6060000000.0 -0.0005208277725614607 -0.00017530341574456543
6061000000.0 -0.00044911057921126485 0.00013838917948305607
6062000000.0 -0.0004220283299218863 0.0004590747703332454
6063000000.0 -0.000262873392784968 0.0005815245676785707
6064000000.0 5.124868039274588e-05 0.000488389516249299
6065000000.0 0.0003205453685950488 0.0002947809698525816
6066000000.0 0.0006472679087892175 0.00023003018577583134
6067000000.0 0.0005515467491932213 -7.778749568387866e-05
6068000000.0 0.0005668692174367607 -0.00018021329015027732
6069000000.0 0.0003271443711128086 -0.0005809020949527621
6070000000.0 -5.588854764937423e-05 -0.0005401326925493777
6071000000.0 -0.0003101702604908496 -0.0006061551976017654
6072000000.0 -0.0005023417761549354 -0.00048573489766567945
6073000000.0 -0.0005294524016790092 -0.00019489499391056597
6074000000.0 -0.00037489982787519693 0.0002328709524590522
6075000000.0 -0.00039092061342671514 0.00020567630417644978
6076000000.0 -0.0001696195249678567 0.0007128385477699339
6077000000.0 0.00023222911113407463 0.0006916987476870418
6078000000.0 0.00034120812779292464 0.0005380341317504644
6079000000.0 0.0005060620023868978 0.00025583949172869325
6080000000.0 0.00049406016478315 0.00013647320156451315
6081000000.0 0.00047815340803936124 -0.0002991479996126145
6082000000.0 0.00031586067052558064 -0.0007183201378211379
6083000000.0 -1.592963599250652e-05 -0.0005712362471967936
6084000000.0 -0.00038301118183881044 -0.00046097193262539804
6085000000.0 -0.00046035918057896197 -0.0004133944748900831
6086000000.0 -0.0006587338866665959 -0.000239683358813636
6087000000.0 -0.00044767907820641994 0.00010698279947973788
6088000000.0 -0.0002274971775477752 0.0005598872085101902
6089000000.0 -0.00016553151363041252 0.0003816722019109875
6090000000.0 0.0002759462222456932 0.0006060884334146976
6091000000.0 0.00041144032729789615 0.0002389722503721714
6092000000.0 0.0005545016610994935 0.00035808156826533377
6093000000.0 0.00045580678852275014 4.297417945053894e-06
6094000000.0 0.00047083187382668257 -0.0001464906963519752
6095000000.0 0.00044426348176784813 -0.0003363362338859588
6096000000.0 1.4380351785803214e-05 -0.0006803051801398396
6097000000.0 -0.00033302645897492766 -0.0005479520186781883
6098000000.0 -0.00048606868949718773 -0.00032922433456405997
6099000000.0 -0.0006553546991199255 -6.563918759638909e-06
6100000000.0 -0.0005967484321445227 0.00014893538900651038
6101000000.0 -0.00029832631116732955 0.0003049169317819178
6102000000.0 0.00017031938477884978 0.0006056317361071706
6103000000.0 0.00013646521256305277 0.0004958573845215142
6104000000.0 0.0003050588711630553 0.00038575666258111596
6105000000.0 0.0005197823629714549 0.00031623546965420246
6106000000.0 0.00047891371650621295 -1.5074211660248693e-05
6107000000.0 0.00023377758043352515 -0.00019020189938601106
6108000000.0 0.0002886071160901338 -0.0003969676326960325
6109000000.0 -0.0001996505743591115 -0.0005842093960382044
6110000000.0 -0.0001922216615639627 -0.0005179489380680025
6111000000.0 -0.000578654813580215 -0.0004895972087979317
6112000000.0 -0.000441047886852175 -9.515785495750606e-05
6113000000.0 -0.00045262675848789513 0.00043740589171648026
6114000000.0 -0.000352294446201995 0.0005688396631740034
6115000000.0 -0.0002179678704123944 0.0006247859564609826
6116000000.0 0.00038093520561233163 0.0005654506385326385
6117000000.0 0.0004943640669807792 0.00018849126354325563
6118000000.0 0.00037352260551415384 -3.3947103474929463e-06
6119000000.0 0.00035600923001766205 -7.552777969976887e-05
6120000000.0 0.00024514467804692686 -0.000305698107695207
6121000000.0 8.241702744271606e-05 -0.0005592114757746458
6122000000.0 -0.00027905218303203583 -0.00039943374576978385
6123000000.0 -0.0003025218902621418 -0.0004997340147383511
6124000000.0 -0.0005733756115660071 -0.00031625397969037294
6125000000.0 -0.0006217181216925383 -0.00010313941311324015
6126000000.0 -0.0003586743550840765 0.00011743256618501619
6127000000.0 -0.00028586856205947697 0.0003300583048257977
6128000000.0 0.00017529648903291672 0.00019654739298857749
6129000000.0 0.00019434370915405452 0.0004610431788023561
6130000000.0 0.00030766380950808525 0.0003560588520485908
6131000000.0 0.000414448935771361 4.9198388296645135e-05
6132000000.0 0.0005094502121210098 -0.0003320426621939987
6133000000.0 0.00016040640184655786 -0.000372620444977656
6134000000.0 0.0004235917003825307 -0.0006296830251812935
6135000000.0 -0.0001410447875969112 -0.00047135958448052406
6136000000.0 -0.0003884797333739698 -0.0004481791111174971
6137000000.0 -0.0004237789544276893 -0.00044918773346580565
6138000000.0 -0.0005561983562074602 1.641088783799205e-05
6139000000.0 -0.00038931152084842324 0.00013459940964821726
6140000000.0 -0.00041643166332505643 0.0003322303236927837
6141000000.0 -3.0266701287473552e-05 0.0006109342211857438
6142000000.0 0.00016914925072342157 0.00031855033012107015
6143000000.0 0.00029910009470768273 0.0005276855081319809
6144000000.0 0.0005190623342059553 0.00023591448552906513
6145000000.0 0.0004561053356155753 9.57252905209316e-06
6146000000.0 0.00047486484982073307 -0.0002124668244505301
6147000000.0 0.00039097853004932404 -0.0005291941924951971
6148000000.0 -0.00011472741607576609 -0.0005236890283413231
6149000000.0 -0.00035491061862558126 -0.0003438342537265271
6150000000.0 -0.0004443072248250246 -0.0002466299629304558
6151000000.0 -0.0004172158660367131 -4.334684126661159e-05
6152000000.0 -0.0005756790633313358 7.538213685620576e-05
6153000000.0 -0.0005202332977205515 0.0003839257697109133
6154000000.0 -0.00012027659977320582 0.0006127035594545305
6155000000.0 -9.634832531446591e-05 0.0006615224992856383
6156000000.0 0.00033347844146192074 0.00039411403122358024
6157000000.0 0.0005504748551174998 2.9782224828522885e-06
6158000000.0 0.0004765783669427037 -0.00016138194769155234
6159000000.0 0.0002715771261136979 -0.00039557841955684125
6160000000.0 0.00033985741902142763 -0.0006292586331255734
6161000000.0 -5.015604256186634e-05 -0.0006600730703212321
6162000000.0 -0.00029836592148058116 -0.0003552351554390043
6163000000.0 -0.0005489612813107669 -0.00020471193420235068
6164000000.0 -0.0006337820668704808 2.2681164409732446e-05
6165000000.0 -0.000710143824107945 0.00026061985408887267
6166000000.0 -0.0003201331419404596 0.0004883819492533803
6167000000.0 -0.00026156127569265664 0.0006860533030703664
6168000000.0 0.00023804206284694374 0.0007331768283620477
6169000000.0 0.00036673410795629025 0.00033015970257110894
6170000000.0 0.0005602740566246212 0.0001552557951072231
6171000000.0 0.00048760129720903933 -0.00019801704911515117
6172000000.0 0.0004763085162267089 -0.00041149937896989286
6173000000.0 7.833146082703024e-05 -0.0006063114269636571
6174000000.0 -7.390918472083285e-05 -0.0006964158965274692
6175000000.0 -0.0003197641344740987 -0.00048024399438872933
6176000000.0 -0.0006773358909413218 -0.000151955580804497
6177000000.0 -0.0005360160139389336 0.00016654023784212768
6178000000.0 -0.0005785892717540264 0.0003097257867921144
6179000000.0 -0.00021707556152250618 0.0006622328655794263
6180000000.0 2.563366615504492e-05 0.0005814206087961793
6181000000.0 0.0003304421261418611 0.0005001587560400367
6182000000.0 0.0004196585214231163 0.0002694298163987696
6183000000.0 0.000679227348882705 7.133085455279797e-05
6184000000.0 0.0005708271055482328 -0.00029730788082815707
6185000000.0 0.00021902841399423778 -0.0005677969311363995
6186000000.0 -2.8646845748880878e-05 -0.0006849437486380339
6187000000.0 -0.0003865119651891291 -0.0004014340229332447
6188000000.0 -0.0004046517424285412 -0.0002503722789697349
6189000000.0 -0.0005576701951213181 -0.0001245530875166878
6190000000.0 -0.0005449949530884624 3.845517130685039e-05
6191000000.0 -0.0003675412735901773 0.00036424852441996336
6192000000.0 1.8141739928978495e-05 0.0005004010163247585
6193000000.0 8.074124343693256e-05 0.0003930150414817035
6194000000.0 0.00010254012886434793 0.00024160310567822307
6195000000.0 0.00040802478906698525 7.365841884166002e-05
6196000000.0 0.0003979372268076986 -0.00010312135418644175
6197000000.0 0.00030309075373224914 -0.00021530686353798956
6198000000.0 0.00010196538642048836 -0.00032881536753848195
6199000000.0 8.140416321111843e-05 -0.0003180889179930091
6200000000.0 -9.161792695522308e-05 -0.0003553201677277684
6201000000.0 -0.0001232579816132784 -0.0001736610574880615
6202000000.0 -0.00024113591643981636 -0.00018430911586619914
6203000000.0 -0.0003424546157475561 -9.889732609735802e-06
6204000000.0 -0.0002783550589811057 0.00020827559637837112
6205000000.0 -0.0003165236266795546 0.00040539551991969347
6206000000.0 -8.359173079952598e-05 0.00032755685970187187
6207000000.0 0.0003163889632560313 0.00022434507263824344
6208000000.0 0.0002859249070752412 0.00031722354469820857
6209000000.0 0.00045760825742036104 6.002572627039626e-05
6210000000.0 0.000256900122622028 1.1731262929970399e-05
6211000000.0 0.00034503103233873844 -0.00017584869056008756
6212000000.0 9.219963249051943e-05 -0.00038742460310459137
6213000000.0 9.249240974895656e-06 -0.0004766941419802606
6214000000.0 -0.0003838475386146456 -0.0002658675657585263
6215000000.0 -0.0003442486049607396 -9.204114758176729e-05
6216000000.0 -0.0003303166013211012 2.3796621462679468e-05
6217000000.0 -0.00033266693935729563 0.00023696270363871008
6218000000.0 -0.00019095094467047602 0.0003891180385835469
6219000000.0 -0.00021103103063069284 0.00044811493717134
6220000000.0 0.00011504480062285438 0.0004382954793982208
6221000000.0 0.00019316759426146746 0.0003105357463937253
6222000000.0 0.0003675551852211356 0.00023820500064175576
6223000000.0 0.00041501098894514143 -0.00012566814257297665
6224000000.0 0.00033118255669251084 -0.00012604340736288577
6225000000.0 0.0001759043661877513 -0.0002912259369622916
6226000000.0 2.7762273475673283e-06 -0.00033611393882893026
6227000000.0 -0.00018328637816011906 -0.00042353186290711164
6228000000.0 -0.00028859826852567494 -0.0003119790635537356
6229000000.0 -0.00042657702579163015 -5.4946704040048644e-05
6230000000.0 -0.00033898616675287485 3.184705201420002e-05
6231000000.0 -0.0002852677134796977 0.0002844101400114596
6232000000.0 -0.0001613128843018785 0.0006384594016708434
6233000000.0 0.000303590320982039 0.0003917242574971169
6234000000.0 0.00022923668439034373 0.000508306547999382
6235000000.0 0.000388148968340829 6.671220762655139e-05
6236000000.0 0.0005404475959949195 -0.00017446007404942065
6237000000.0 0.00041528759174980223 -0.000329655478708446
6238000000.0 0.00033098121639341116 -0.00033572109532542527
6239000000.0 7.654764340259135e-05 -0.0006438151467591524
6240000000.0 -0.0002788387064356357 -0.000556331651750952
6241000000.0 -0.0003579649783205241 -0.00048559249262325466
6242000000.0 -0.0005357069312594831 -0.00025033499696291983
6243000000.0 -0.0005345536046661437 0.00024135119747370481
6244000000.0 -0.0003940061724279076 0.0005175869446247816
6245000000.0 -0.00034856025013141334 0.00048753342707641423
6246000000.0 -1.3774533726973459e-05 0.000538518070243299
6247000000.0 0.00017731978732626885 0.0006154623115435243
6248000000.0 0.0006183666992001235 0.00019193696789443493
6249000000.0 0.0007029066910035908 0.00010034750448539853
6250000000.0 0.000529726326931268 -0.00036747276317328215
6251000000.0 0.0004945313557982445 -0.0007506100228056312
6252000000.0 0.00020737161685246974 -0.0006419366109184921
6253000000.0 -0.00038806060911156237 -0.0005824822001159191
6254000000.0 -0.0007570722373202443 -0.0005153921083547175
6255000000.0 -0.0007211400661617517 -9.114764543483034e-05
6256000000.0 -0.0008540017297491431 0.00015974022971931845
6257000000.0 -0.0007282764418050647 0.0006623232620768249
6258000000.0 -0.00025077498867176473 0.0008707735687494278
6259000000.0 0.00020857364870607853 0.0009564546635374427
6260000000.0 0.0006749018211849034 0.0008794464520178735
6261000000.0 0.0007863378850743175 0.00032229197677224874
6262000000.0 0.001206014771014452 5.502621206687763e-05
6263000000.0 0.000760862894821912 -0.0007221987470984459
6264000000.0 0.000344575586495921 -0.0009142666822299361
6265000000.0 -9.088980732485652e-05 -0.0010491593275219202
6266000000.0 -0.0006118892342783511 -0.0008383752428926528
6267000000.0 -0.0009452616213820875 -0.0004632766649592668
6268000000.0 -0.0010905646486207843 -6.292159469012404e-06
6269000000.0 -0.0009531482355669141 0.0006150944391265512
6270000000.0 -0.0005796771147288382 0.0010239853290840983
6271000000.0 -2.5841876777121797e-05 0.0011513845529407263
6272000000.0 0.0005334927118383348 0.0010790927335619926
6273000000.0 0.0009906240738928318 0.0006408570916391909
6274000000.0 0.0010005616350099444 -0.00020952732302248478
6275000000.0 0.0009468540083616972 -0.000463589996797964
6276000000.0 0.0006914469413459301 -0.0010353827383369207
6277000000.0 0.00010287525219609961 -0.001108511001802981
6278000000.0 -0.000481610739370808 -0.0010048685362562537
6279000000.0 -0.0009509528754279017 -0.0005882063414901495
6280000000.0 -0.0011670406674966216 -7.49871542211622e-05
6281000000.0 -0.0010760125005617738 0.00047920792712830007
6282000000.0 -0.0006768801249563694 0.0009826617315411568
6283000000.0 -0.0002080497652059421 0.0009838732657954097
6284000000.0 0.0004706350155174732 0.0009423667215742171
6285000000.0 0.0007660583942197263 0.0007008578977547586
6286000000.0 0.001127708819694817 0.0001948838762473315
6287000000.0 0.0010609051678329706 -0.00027093812241218984
6288000000.0 0.0006896909326314926 -0.0007817627629265189
6289000000.0 0.00017106720770243555 -0.0008972706855274737
6290000000.0 -0.0004566254501696676 -0.0008789377170614898
6291000000.0 -0.0006546415388584137 -0.0006405694293789566
6292000000.0 -0.0007785569760017097 -0.00025995634496212006
6293000000.0 -0.0008678275626152754 0.00011876536154886708
6294000000.0 -0.0006332818302325904 0.0006620322819799185
6295000000.0 -0.00020430274889804423 0.0009031084482558072
6296000000.0 0.00017226724594365805 0.0006977251614443958
6297000000.0 0.0004986193962395191 0.0007466342067345977
6298000000.0 0.0007310546934604645 0.00033258282928727567
6299000000.0 0.0007492436561733484 -0.0002167394559364766
6300000000.0 0.0007085643010213971 -0.00036529163480736315
6301000000.0 0.0003346664016135037 -0.0007757942657917738
6302000000.0 -6.914788536960259e-05 -0.0007283208542503417
6303000000.0 -0.0002904260763898492 -0.0007535627810284495
6304000000.0 -0.0006079515442252159 -0.0003942979092244059
6305000000.0 -0.0006421543075703084 -4.652646748581901e-05
6306000000.0 -0.0006041897577233613 0.0001890576386358589
6307000000.0 -0.0004911124706268311 0.00045167712960392237
6308000000.0 -0.00013256719103083014 0.0006045766640454531
6309000000.0 0.0001839019823819399 0.0007378989248536527
6310000000.0 0.0004729872744064778 0.0004287614137865603
6311000000.0 0.0006387568428181112 0.00023471361782867461
6312000000.0 0.0006942512700334191 -0.00022670791076961905
6313000000.0 0.0004708292835857719 -0.0003800357226282358
6314000000.0 0.00033269377308897674 -0.0005333783919923007
6315000000.0 0.00010384571214672178 -0.0006485237972810864
6316000000.0 -0.0003501916362438351 -0.0006092939293012023
6317000000.0 -0.000480191403767094 -0.0004425922525115311
6318000000.0 -0.0007045168313197792 2.347621375520248e-06
6319000000.0 -0.0006725100101903081 0.0003075402928516269
6320000000.0 -0.00031120661878958344 0.0005344857927411795
6321000000.0 -0.00013613099872600287 0.0007484889938496053
6322000000.0 0.00021190695406403393 0.0006508047226816416
6323000000.0 0.000582078646402806 0.0004991542082279921
6324000000.0 0.000695904134772718 0.00018937652930617332
6325000000.0 0.0006871945806778967 -0.0002893919008783996
6326000000.0 0.0004614934150595218 -0.00044223040458746254
6327000000.0 0.0001875991147244349 -0.0005284177605062723
6328000000.0 -0.00014769425615668297 -0.0007652274216525257
6329000000.0 -0.00036809573066420853 -0.0004378317971713841
6330000000.0 -0.00038609225885011256 -0.0001902636286104098
6331000000.0 -0.00048343342496082187 4.5715180021943524e-05
6332000000.0 -0.0005008678417652845 0.00032773325801827013
6333000000.0 -0.00022317694674711674 0.0004715445975307375
6334000000.0 -3.149083204334602e-05 0.0004896540194749832
6335000000.0 0.0002411450259387493 0.00046264639240689576
6336000000.0 0.00040668275323696434 0.00041633311775512993
6337000000.0 0.0003804491716437042 9.209276322508231e-05
6338000000.0 0.0005682802875526249 -0.00012125057401135564
6339000000.0 0.00033587406505830586 -0.0003040247829630971
6340000000.0 0.00023602000146638602 -0.00048584415344521403
6341000000.0 4.0527167584514245e-05 -0.00048205783241428435
6342000000.0 -0.0002837516076397151 -0.000461168383480981
6343000000.0 -0.0004512053565122187 -0.0002587202179711312
6344000000.0 -0.00038349523674696684 -9.664108802098781e-05
6345000000.0 -0.0003768601454794407 0.00029972739866934717
6346000000.0 -0.00031335820676758885 0.00039450102485716343
6347000000.0 -8.052707562455907e-05 0.00048305539530701935
6348000000.0 6.995868170633912e-05 0.0004003250505775213
6349000000.0 0.00028219944215379655 0.00025281019043177366
6350000000.0 0.0004127978754695505 0.00019082680228166282
6351000000.0 0.0005512874340638518 -7.43283744668588e-05
6352000000.0 0.00032447281409986317 -0.0002893464989028871
6353000000.0 0.0002373317547608167 -0.0003911801613867283
6354000000.0 5.2329480240587145e-05 -0.00038190538180060685
6355000000.0 -0.00016516559117008 -0.00037761739804409444
6356000000.0 -0.0003901956952176988 -0.00025395522243343294
6357000000.0 -0.00045778678031638265 -0.00019871487165801227
6358000000.0 -0.0005509895854629576 0.00011954944056924433
6359000000.0 -0.0003585916419979185 0.00017671669775154442
6360000000.0 -0.00020572608627844602 0.0004072092706337571
6361000000.0 0.00011661076860036701 0.0003733013872988522
6362000000.0 0.0002672894624993205 0.00032841548090800643
6363000000.0 0.00026587481261231005 0.00029510637978091836
6364000000.0 0.0005348263075575233 1.2104773304599803e-05
6365000000.0 0.0002960711426567286 -0.00024077645502984524
6366000000.0 0.00025730501511134207 -0.0003647723060566932
6367000000.0 5.5555090511916205e-05 -0.00047013163566589355
6368000000.0 -0.00010020766785601154 -0.0004824829229619354
6369000000.0 -0.00033611449180170894 -0.0003067723591811955
6370000000.0 -0.0004746965423692018 -0.00013595851487480104
6371000000.0 -0.00047218037070706487 6.361212581396103e-05
6372000000.0 -0.00040425118640996516 0.00031809351639822125
6373000000.0 -0.00014407570415642112 0.0004613574128597975
6374000000.0 3.740294778253883e-05 0.0004889982519671321
6375000000.0 0.00023600467829965055 0.000521934824064374
6376000000.0 0.0004158809024374932 0.0002201059542130679
6377000000.0 0.0004911790019832551 3.5019438655581325e-05
6378000000.0 0.0005356594338081777 -0.0002364028914598748
6379000000.0 0.0002887786540668458 -0.00038023554952815175
6380000000.0 3.148317409795709e-05 -0.0005113524384796619
6381000000.0 -0.00014945027942303568 -0.0003979859466198832
6382000000.0 -0.00043456305866129696 -0.00034707601298578084
6383000000.0 -0.0005138536216691136 -0.00014574914530385286
6384000000.0 -0.000539082451723516 0.00011440458183642477
6385000000.0 -0.0003505120985209942 0.0002913330099545419
6386000000.0 -0.00013828258670400828 0.0004552804457489401
6387000000.0 -1.529220571683254e-05 0.0005226110224612057
6388000000.0 0.0002255360595881939 0.0003727237053681165
6389000000.0 0.00039964320603758097 0.00031321056303568184
6390000000.0 0.0004707000916823745 9.653863344283309e-06
6391000000.0 0.00040441856253892183 -0.00019601343956310302
6392000000.0 0.0003460450388956815 -0.00041204452281817794
6393000000.0 0.00015466692275367677 -0.00046149324043653905
6394000000.0 -0.00011646677739918232 -0.0004828885430470109
6395000000.0 -0.0003613691369537264 -0.00028141241637058556
6396000000.0 -0.0005374448955990374 -0.00019478918693494052
6397000000.0 -0.0003057511930819601 0.00012085572234354913
6398000000.0 -0.0003800395643338561 8.203923789551482e-05
6399000000.0 -0.0003846314502879977 0.0003592881257645786
6400000000.0 -0.00014413784083444625 0.00044365154462866485
6401000000.0 0.00020785779634024948 0.0004588245355989784
6402000000.0 0.000286048132693395 0.0003587946412153542
6403000000.0 0.0003499657323118299 0.00017820527136791497
6404000000.0 0.00035941830719821155 -0.0001139439846156165
6405000000.0 0.0002526849275454879 -0.00017065141582861543
6406000000.0 0.00020798853074666113 -0.00036285220994614065
6407000000.0 -4.52757412858773e-05 -0.0004240023554302752
6408000000.0 -0.00021915828983765095 -0.00039879337418824434
6409000000.0 -0.000367556611308828 -0.0003078148001804948
6410000000.0 -0.000354364572558552 -0.0002113774826284498
6411000000.0 -0.00047594981151632965 4.2876134102698416e-05
6412000000.0 -0.0004314628313295543 0.00029961118707433343
6413000000.0 -0.0001739661383908242 0.0004006896633654833
6414000000.0 -2.4265975298476405e-05 0.0005172195960767567
6415000000.0 0.00011275307042524219 0.0005000625387765467
6416000000.0 0.00031206721905618906 0.00035050982842221856
6417000000.0 0.000538558466359973 0.0002668286906555295
6418000000.0 0.0006231034640222788 -0.00013770698569715023
6419000000.0 0.0006021069129928946 -0.0003416590625420213
6420000000.0 0.0004918730119243264 -0.0007120190421119332
6421000000.0 4.530642763711512e-05 -0.000850636453833431
6422000000.0 -0.00041487376438453794 -0.0008014423074200749
6423000000.0 -0.0008655916899442673 -0.0005936674424447119
6424000000.0 -0.0011110241757705808 9.205673450196628e-06
6425000000.0 -0.0010793335968628526 0.0006463690078817308
6426000000.0 -0.0006024898029863834 0.0011198206339031458
6427000000.0 0.00028876643045805395 0.0011693475535139441
6428000000.0 0.001061910530552268 0.0009813022334128618
6429000000.0 0.0013689353363588452 0.00016788218636065722
6430000000.0 0.0012929000658914447 -0.0006231883889995515
6431000000.0 0.0008277315064333379 -0.0013388124061748385
6432000000.0 -0.00015401924611069262 -0.0016854589339345694
6433000000.0 -0.0010590667370706797 -0.0013010051334276795
6434000000.0 -0.001663076807744801 -0.00045576924458146095
6435000000.0 -0.0017070492031052709 0.000454796536359936
6436000000.0 -0.001167543581686914 0.0012855323730036616
6437000000.0 -0.00017700500029604882 0.0014005486154928803
6438000000.0 0.0005693458369933069 0.0013660885160788894
6439000000.0 0.001105096423998475 0.0009110237006098032
6440000000.0 0.0012022816808894277 8.173567039193586e-05
6441000000.0 0.0009864505846053362 -0.0003751701442524791
6442000000.0 0.000766390236094594 -0.0009418296394869685
6443000000.0 0.00026899445219896734 -0.0010357473511248827
6444000000.0 -0.00019157235510647297 -0.0009770623873919249
6445000000.0 -0.000680017750710249 -0.0006282448302954435
6446000000.0 -0.0008764003869146109 -0.0002705492079257965
6447000000.0 -0.0008559602429158986 4.94948799314443e-05
6448000000.0 -0.0006465633632615209 0.0005160307628102601
6449000000.0 -0.00036693073343485594 0.0007685505552217364
6450000000.0 6.430010398617014e-05 0.0007538723875768483
6451000000.0 0.0003465588961262256 0.0006553663406521082
6452000000.0 0.0005351436557248235 0.00042030870099551976
6453000000.0 0.0006815756787545979 1.9684111975948326e-05
6454000000.0 0.0006844350136816502 -0.0002860468812286854
6455000000.0 0.0003876201808452606 -0.0005449372692964971
6456000000.0 0.000160480965860188 -0.0006568065145984292
6457000000.0 -0.0001518228236818686 -0.0005669249221682549
6458000000.0 -0.000347833993146196 -0.0003800889535341412
6459000000.0 -0.0005408758297562599 -0.0002319120685569942
6460000000.0 -0.0005273421993479133 3.823919178103097e-05
6461000000.0 -0.0006172439316287637 0.0003045157063752413
6462000000.0 -0.0003234325849916786 0.0004465710371732712
6463000000.0 -0.00010651838238118216 0.0005184501642361283
6464000000.0 0.00020332213898655027 0.0005042888224124908
6465000000.0 0.00036637947778217494 0.00037794761010445654
6466000000.0 0.0005039210082031786 5.0259750423720106e-05
6467000000.0 0.00045323328231461346 -6.3641149608884e-05
6468000000.0 0.00043738397653214633 -0.00028156948974356055
6469000000.0 0.0002714413567446172 -0.00048361194785684347
6470000000.0 -6.5822782744362485e-06 -0.0005526953609660268
6471000000.0 -0.0001908526464831084 -0.0004934481112286448
6472000000.0 -0.00033276667818427086 -0.00028613267932087183
6473000000.0 -0.0005175764672458172 -0.0001340416492894292
6474000000.0 -0.0005246057407930493 6.300341919995844e-05
6475000000.0 -0.00027733767637982965 0.0003451643860898912
6476000000.0 -0.00022536700998898596 0.0003922349715139717
6477000000.0 3.377729080966674e-05 0.0005492030177265406
6478000000.0 0.0003358771209605038 0.00045252899872139096
6479000000.0 0.0004276802355889231 0.0002426538267172873
6480000000.0 0.0005265030195005238 4.4266624172450975e-05
6481000000.0 0.0004696268297266215 -7.108024874469265e-05
6482000000.0 0.00029072040342725813 -0.000380624522222206
6483000000.0 0.00011967409955104813 -0.0006201068172231317
6484000000.0 -0.00018752018513623625 -0.0004775815177708864
6485000000.0 -0.0003825792227871716 -0.00046045935596339405
6486000000.0 -0.0005067334859631956 -7.967454439494759e-05
6487000000.0 -0.00044200048432685435 0.00011207396892132238
6488000000.0 -0.00043599106720648706 0.00031941646011546254
6489000000.0 -0.0001912299048854038 0.0005173735553398728
6490000000.0 2.7339930966263637e-05 0.0004916469333693385
6491000000.0 0.00024862829013727605 0.0004649010661523789
6492000000.0 0.000424274243414402 0.0002228293160442263
6493000000.0 0.0004832320846617222 2.578004205133766e-05
6494000000.0 0.0005417469656094909 -0.0002783789241220802
6495000000.0 0.0003252274473197758 -0.0004230949853081256
6496000000.0 0.00010631622717482969 -0.0004894672892987728
6497000000.0 -0.0001977241481654346 -0.00047436781460419297
6498000000.0 -0.00046666659181937575 -0.0004316995036788285
6499000000.0 -0.0005191792151890695 -0.00014198721328284591
6500000000.0 -0.0005378102650865912 5.0412989367032424e-05
6501000000.0 -0.0004738997668027878 0.0002899056125897914
6502000000.0 -0.0003515416174195707 0.00044933901517651975
6503000000.0 -6.2326021179615054e-06 0.0006491320673376322
6504000000.0 0.0002560298307798803 0.0005063225398771465
6505000000.0 0.0005516217788681388 0.00031845131888985634
6506000000.0 0.000537988671567291 -7.24270794307813e-05
6507000000.0 0.00048546813195571303 -0.0002315622550668195
6508000000.0 0.00032161150011233985 -0.0004464752273634076
6509000000.0 0.00014647831267211586 -0.00047611925401724875
6510000000.0 -0.00022960655041970313 -0.000440807081758976
6511000000.0 -0.0003639650240074843 -0.0003341028932482004
6512000000.0 -0.0004464765661396086 -3.895656845998019e-05
6513000000.0 -0.0004001199558842927 0.0001511263835709542
6514000000.0 -0.0003327018639538437 0.0003232293820474297
6515000000.0 -0.00021605563233606517 0.00035832964931614697
6516000000.0 9.725422387418803e-06 0.000386446132324636
6517000000.0 0.00025374972028657794 0.0003725463757291436
6518000000.0 0.00033913858351297677 0.00021929845388513058
6519000000.0 0.0004195942310616374 -5.694778519682586e-05
6520000000.0 0.0003266499552410096 -0.00028728132019750774
6521000000.0 0.0001893974986160174 -0.0003213685704395175
6522000000.0 1.975259874598123e-05 -0.00034844150650314987
6523000000.0 -0.0001785465283319354 -0.00035393860889598727
6524000000.0 -0.00028529533301480114 -0.0003060873132199049
6525000000.0 -0.0004242699360474944 -0.00010610267781885341
6526000000.0 -0.00016798617434687912 2.322781438124366e-05
6527000000.0 -0.0002057548554148525 0.0002208498917752877
6528000000.0 -0.0002549817436374724 0.0002174960245611146
6529000000.0 -4.36578193330206e-05 0.00026598566910251975
6530000000.0 0.00019330599752720445 0.000242575493757613
6531000000.0 4.773307591676712e-05 0.00013730389764532447
6532000000.0 6.688594294246286e-05 0.00017479016969446093
6533000000.0 0.0003479733131825924 0.00023175262322183698
6534000000.0 0.0008265090291388333 -6.853210652479902e-05
6535000000.0 0.0005555342650040984 -0.0005110779893584549
6536000000.0 0.0002540035347919911 -0.0007569897570647299
6537000000.0 -0.00039228005334734917 -0.0008117611287161708
6538000000.0 -0.0005041705444455147 -0.0003624471719376743
6539000000.0 -0.0007261277642101049 1.745861845847685e-05
6540000000.0 -0.0006394522497430444 0.00043183634988963604
6541000000.0 -0.0003623532538767904 0.0005186410853639245
6542000000.0 -8.111240276775789e-06 0.0006472948007285595
6543000000.0 0.00037051300751045346 0.0005759423947893083
6544000000.0 0.0005565954488702118 0.00041011712164618075
6545000000.0 0.0005532134673558176 4.743385943584144e-05
6546000000.0 0.0004658779362216592 -0.00022242998238652945
6547000000.0 0.00031438484438695014 -0.00042376163764856756
6548000000.0 6.618443148909137e-05 -0.0005372936138883233
6549000000.0 -0.00016993068857118487 -0.0005549370544031262
6550000000.0 -0.0003551704285200685 -0.0002935701922979206
6551000000.0 -0.0005004837876185775 -0.00025612086756154895
6552000000.0 -0.0004895854508504272 9.351306653115898e-05
6553000000.0 -0.0002940922568086535 0.0003158982435707003
6554000000.0 -0.00015840156993363053 0.0005418355576694012
6555000000.0 4.94772848469438e-06 0.000537210435140878
6556000000.0 0.0002127411135006696 0.0004462500801309943
6557000000.0 0.0003972848935518414 0.0001698626729194075
6558000000.0 0.0005675098509527743 -3.5707280403585173e-06
6559000000.0 0.0005036988877691329 -0.00016333399980794638
6560000000.0 0.0002850774035323411 -0.00045490358024835587
6561000000.0 8.167692431015894e-05 -0.00042140588629990816
6562000000.0 -0.00013482631766237319 -0.0005197027348913252
6563000000.0 -0.0003644881653599441 -0.0003148149698972702
6564000000.0 -0.00035972322802990675 -0.0001836556039052084
6565000000.0 -0.0003850925713777542 0.0001383848866680637
6566000000.0 -0.00040418136632069945 0.00022831819660495967
6567000000.0 -0.0001285512698814273 0.0004706441832240671
6568000000.0 7.56841036491096e-05 0.00048685833462513983
6569000000.0 0.00024050385400187224 0.00039387360448017716
6570000000.0 0.000351778173353523 0.00031595086329616606
6571000000.0 0.0004847808158956468 6.705713167320937e-05
6572000000.0 0.0004553442122414708 -0.00017970643239095807
6573000000.0 0.0003260242519900203 -0.0003793436917476356
6574000000.0 0.00011255851859459653 -0.00045887159649282694
6575000000.0 -8.292277198052034e-05 -0.00045815474004484713
6576000000.0 -0.00024339846277143806 -0.000354894669726491
6577000000.0 -0.0005010228487662971 -0.00014700795873068273
6578000000.0 -0.0004962576786056161 9.074318950297311e-05
6579000000.0 -0.00042408754234202206 0.00027246991521678865
6580000000.0 -0.00020243425387889147 0.00037678240914829075
6581000000.0 -4.22260636696592e-05 0.00046655844198539853
6582000000.0 0.00022027609520591795 0.0004672207869589329
6583000000.0 0.0003951264370698482 0.00031862148898653686
6584000000.0 0.0004464990342967212 0.00013059342745691538
6585000000.0 0.0004970617592334747 -0.00010250771447317675
6586000000.0 0.0003442117013037205 -0.0002998009731527418
6587000000.0 0.00019744154997169971 -0.0005500952247530222
6588000000.0 2.3266233256435953e-05 -0.00047251459909603
6589000000.0 -0.0002736205351538956 -0.00039926855242811143
6590000000.0 -0.00046902860049158335 -0.00021029247727710754
6591000000.0 -0.00044435224845074117 -1.4648755495727528e-05
6592000000.0 -0.0004412955604493618 0.00024697097251191735
6593000000.0 -0.00032550463220104575 0.00044489113497547805
6594000000.0 -9.333457273896784e-05 0.0004524407268036157
6595000000.0 0.0001775372656993568 0.0005253445124253631
6596000000.0 0.00037696637446060777 0.0004064484091941267
6597000000.0 0.0004955697222612798 6.562547059729695e-05
6598000000.0 0.0004890248528681695 -0.00011477829684736207
6599000000.0 0.00046462935279123485 -0.00032271959935314953
6600000000.0 0.00014429687871597707 -0.00045549447531811893
6601000000.0 -0.00016823770420160145 -0.0005022985278628767
6602000000.0 -0.00023726654762867838 -0.0004085129185114056
6603000000.0 -0.0004429147520568222 -0.000298680504783988
6604000000.0 -0.0005367830744944513 -3.414084130781703e-05
6605000000.0 -0.00044913412421010435 0.00017215874686371535
6606000000.0 -0.0003620196075644344 0.0004198852111585438
6607000000.0 -0.00011315873416606337 0.0005660163005813956
6608000000.0 0.0001940159418154508 0.0003928583755623549
6609000000.0 0.0003475101839285344 0.00037561007775366306
6610000000.0 0.0005385526455938816 0.0002502258575987071
6611000000.0 0.0005331229185685515 -9.227023838320747e-05
6612000000.0 0.0005377318593673408 -0.00018242397345602512
6613000000.0 0.0002027940354309976 -0.0004354726988822222
6614000000.0 0.0001648134202696383 -0.0006068584625609219
6615000000.0 -0.00018993111734744161 -0.0006045976188033819
6616000000.0 -0.0004533981264103204 -0.0004483822558540851
6617000000.0 -0.0007400431204587221 -0.00014151743380352855
6618000000.0 -0.0007190180476754904 9.824061999097466e-05
6619000000.0 -0.0006417967961169779 0.0004903878434561193
6620000000.0 -0.00022307988547254354 0.0006874353275634348
6621000000.0 3.080025271628983e-05 0.0007538202335126698
6622000000.0 0.00036464701406657696 0.0005478370003402233
6623000000.0 0.0006853340310044587 0.0004184911958873272
6624000000.0 0.0006889848154969513 0.00011847064888570458
6625000000.0 0.00079709681449458 -0.00035527494037523866
6626000000.0 0.0005881485994905233 -0.0006657581543549895
6627000000.0 0.00019787470228038728 -0.0008805273682810366
6628000000.0 -0.0001627505262149498 -0.0007768537034280598
6629000000.0 -0.0006768829771317542 -0.0008057468221522868
6630000000.0 -0.001152696437202394 -0.0004299164575058967
6631000000.0 -0.001090356265194714 0.00018029632337857038
6632000000.0 -0.0009354077046737075 0.0007653621141798794
6633000000.0 -0.0003848941996693611 0.0011593014933168888
6634000000.0 0.0004089716821908951 0.0012396725360304117
6635000000.0 0.0008670537499710917 0.0009123811614699662
6636000000.0 0.001545818173326552 8.806018740870059e-05
6637000000.0 0.0014512186171486974 -0.0008073054486885667
6638000000.0 0.0006514500710181892 -0.0014598728157579899
6639000000.0 -0.0003412938385736197 -0.0014447699068114161
6640000000.0 -0.0010651703923940659 -0.0011730858823284507
6641000000.0 -0.0015737360808998346 -0.0002691409317776561
6642000000.0 -0.001475200755521655 0.0006762521807104349
6643000000.0 -0.0007807057118043303 0.0011386736296117306
6644000000.0 -9.089655941352248e-05 0.0014869988663122058
6645000000.0 0.0008787009282968938 0.0013345521874725819
6646000000.0 0.0012125000357627869 0.0005743916262872517
6647000000.0 0.00129735900554806 -5.717021122109145e-05
6648000000.0 0.0008180964505299926 -0.0005734996520914137
6649000000.0 0.0006397140095941722 -0.0009964751079678535
6650000000.0 -6.479201601905515e-07 -0.0010289597557857633
6651000000.0 -0.0003919311275240034 -0.0010108606657013297
6652000000.0 -0.0008559754933230579 -0.0005846063140779734
6653000000.0 -0.000835407292470336 -0.00022256076044868678
6654000000.0 -0.0007834605639800429 0.00038004302768968046
6655000000.0 -0.0005102963768877089 0.0006572309648618102
6656000000.0 -0.00018881214782595634 0.0008349220734089613
6657000000.0 0.0001320265291724354 0.0007497575716115534
6658000000.0 0.0005053461063653231 0.000497332657687366
6659000000.0 0.0006736768409609795 0.00035893090534955263
6660000000.0 0.0007806469802744687 -8.97001737030223e-05
6661000000.0 0.0005977179389446974 -0.0004185442812740803
6662000000.0 0.00038347061490640044 -0.0007206658483482897
6663000000.0 3.1986903195502236e-05 -0.0005763431545346975
6664000000.0 -0.0002711675188038498 -0.0005138712585903704
6665000000.0 -0.0005546625470742583 -0.00038991792825981975
6666000000.0 -0.000693913025315851 7.507490226998925e-05
6667000000.0 -0.0006165591767057776 0.0002645331551320851
6668000000.0 -0.00038284272886812687 0.00035544930142350495
6669000000.0 -6.879504508106038e-05 0.0005231958930380642
6670000000.0 9.415667591383681e-05 0.0005854124901816249
6671000000.0 0.0003045522898901254 0.00035898995702154934
6672000000.0 0.00046848022611811757 0.00014843094686511904
6673000000.0 0.0005221543833613396 -9.95294758467935e-05
6674000000.0 0.000369120214600116 -0.0001851835404522717
6675000000.0 0.0002390345325693488 -0.0003585292724892497
6676000000.0 -4.303453169995919e-05 -0.0004666809400077909
6677000000.0 -0.00016587547725066543 -0.000594622571952641
6678000000.0 -0.00029835625900886953 -0.0003026251506526023
6679000000.0 -0.00031289045000448823 -0.00013047042011749
6680000000.0 -0.0003250159788876772 0.00013078415940981358
6681000000.0 -0.00030251077259890735 0.00023509115271735936
6682000000.0 -0.0001811722613638267 0.00028973756707273424
6683000000.0 -4.638098835130222e-05 0.00031352476798929274
6684000000.0 0.00018946651834994555 0.00035485849366523325
6685000000.0 0.0002624121552798897 0.0002017865190282464
6686000000.0 0.00032277044374495745 3.862884477712214e-05
6687000000.0 0.00029983356944285333 -0.0001663064322201535
6688000000.0 0.0002853047626558691 -0.0001423667126800865
6689000000.0 0.0001703813177300617 -0.00020122958812862635
6690000000.0 -4.1528437577653676e-05 -0.00036024872679263353
6691000000.0 -0.00018763232219498605 -0.0003483177279122174
6692000000.0 -0.00023072418116498739 -0.00015566508227493614
6693000000.0 -0.00031044287607073784 -6.579395267181098e-05
6694000000.0 -0.00038243134622462094 4.702095247921534e-05
6695000000.0 -0.00020703258633147925 0.00016832296387292445
6696000000.0 -0.0001573991175973788 0.0003360087866894901
6697000000.0 0.00018294445180799812 0.0004022580396849662
6698000000.0 0.00019539889763109386 0.0002428319421596825
6699000000.0 0.000246893527219072 0.00015530988457612693
6700000000.0 0.00034569783019833267 -8.373420860152692e-05
6701000000.0 0.00020896081696264446 -0.0003246070700697601
6702000000.0 0.00022705155424773693 -0.0002016846847254783
6703000000.0 0.00010328175994800404 -0.00039407832082360983
6704000000.0 -9.123967902269214e-05 -0.00032180437119677663
6705000000.0 -0.00034483152558095753 -0.0002104792947648093
6706000000.0 -0.0002971660578623414 -0.000141297176014632
6707000000.0 -0.0004785217170137912 -2.2423902919399552e-05
6708000000.0 -0.0002867847215384245 0.00019003012857865542
6709000000.0 -0.00023078893718775362 0.0003604561206884682
6710000000.0 3.236847624066286e-05 0.00042792526073753834
6711000000.0 8.391238225158304e-05 0.0002882483240682632
6712000000.0 0.0003535755386110395 0.00013278356345836073
6713000000.0 0.000516036874614656 2.3389053239952773e-05
6714000000.0 0.0005108748446218669 -0.0001518831413704902
6715000000.0 0.0003630965366028249 -0.0002171176893170923
6716000000.0 0.0001622272829990834 -0.00039432881749235094
6717000000.0 -4.352970790932886e-05 -0.00036824235576204956
6718000000.0 -0.00028242680127732456 -0.0004605275462381542
6719000000.0 -0.00027662081993184984 -0.00011938613897655159
6720000000.0 -0.0004475036694202572 -8.524268923792988e-05
6721000000.0 -0.0003690869198180735 0.0002210407837992534
6722000000.0 -0.00021534174447879195 0.0004351629759185016
6723000000.0 -0.00015264059766195714 0.00038749672239646316
6724000000.0 0.00016109584248624742 0.0003639758797362447
6725000000.0 0.0003197076148353517 0.00031412934185937047
6726000000.0 0.0005085817538201809 0.0001400634355377406
6727000000.0 0.0002980060817208141 -6.333908095257357e-05
6728000000.0 0.00041840007179416716 -0.0004146582796238363
6729000000.0 0.00013776376727037132 -0.00041673408122733235
6730000000.0 2.7758755095419474e-05 -0.0005009945598430932
6731000000.0 -0.0003432571538724005 -0.0004462819779291749
6732000000.0 -0.000364055042155087 -0.00018929816724266857
6733000000.0 -0.0004598287050612271 -0.00015153650019783527
6734000000.0 -0.00037235560012049973 9.735974163049832e-05
6735000000.0 -0.0004110882000532001 0.000433397653978318
6736000000.0 -4.541948874248192e-05 0.0006424628081731498
6737000000.0 0.00019839876040350646 0.00048349954886361957
6738000000.0 0.00036014910438098013 0.00043169630225747824
6739000000.0 0.00031702619162388146 0.00017654527619015425
6740000000.0 0.0005980778369121253 1.1537592399690766e-05
6741000000.0 0.00039888202445581555 -0.000226498581469059
6742000000.0 0.00034582719672471285 -0.0005678556044586003
6743000000.0 -2.074320718747913e-06 -0.0007170181488618255
6744000000.0 -0.0002938853285741061 -0.0006498685688711703
6745000000.0 -0.0005586943589150906 -0.0003621708892751485
6746000000.0 -0.0006648269481956959 -8.308342512464151e-05
6747000000.0 -0.0007455872255377471 0.0002885527501348406
6748000000.0 -0.00052695965860039 0.0005073072970844805
6749000000.0 -0.00013811465760227293 0.0007217751117423177
6750000000.0 0.0002751981664914638 0.000707801547832787
6751000000.0 0.00047416499000974 0.0003673710743896663
6752000000.0 0.0006784351426176727 0.00023326461086980999
6753000000.0 0.0006849491619504988 -0.00031021921313367784
6754000000.0 0.0004980759113095701 -0.0006030340446159244
6755000000.0 0.00035608067992143333 -0.0006775501533411443
6756000000.0 -0.00015988304221536964 -0.0007471966091543436
6757000000.0 -0.0004246709286235273 -0.0005747213144786656
6758000000.0 -0.0007433506543748081 -0.00021959473087918013
6759000000.0 -0.0008082731510512531 0.00016789732035249472
6760000000.0 -0.0005093165673315525 0.0005088584730401635
6761000000.0 -0.00018863973673433065 0.0006866162293590605
6762000000.0 0.00015182203787844628 0.0007565126288682222
6763000000.0 0.00048251886619254947 0.000801689107902348
6764000000.0 0.0007718259585089982 0.00038545310962945223
6765000000.0 0.0007017290918156505 -3.1936855521053076e-05
6766000000.0 0.0007907995022833347 -0.00034074726863764226
6767000000.0 0.00047974532935768366 -0.000685658014845103
6768000000.0 4.2980234866263345e-05 -0.0009091555257327855
6769000000.0 -0.00025048223324120045 -0.0008257764275185764
6770000000.0 -0.0007395424763672054 -0.0006323577836155891
6771000000.0 -0.0008526091696694493 -0.00018149384413845837
6772000000.0 -0.0007216375670395792 0.0002966621541418135
6773000000.0 -0.0006652985466644168 0.0006105937645770609
6774000000.0 -0.00032194817322306335 0.0008290178957395256
6775000000.0 0.00024682754883542657 0.0008626409689895809
6776000000.0 0.0006283078691922128 0.0005930265760980546
6777000000.0 0.0009387325844727457 0.0003035324043594301
6778000000.0 0.000812376441899687 -0.00018533950787968934
6779000000.0 0.000735453562811017 -0.0005712273414246738
6780000000.0 0.0004182527191005647 -0.0005854634800925851
6781000000.0 -0.00019059136684518307 -0.0008677495643496513
6782000000.0 -0.0004396566073410213 -0.0006675681215710938
6783000000.0 -0.0009150296682491899 -0.0004406329244375229
6784000000.0 -0.0009733107290230691 -0.00011983776494162157
6785000000.0 -0.0008106193854473531 0.00032164930598810315
6786000000.0 -0.0005916975205764174 0.0006515207351185381
6787000000.0 -0.00020860850054305047 0.0008762246579863131
6788000000.0 0.00038395379669964314 0.0009042759775184095
6789000000.0 0.0007458580657839775 0.0006841812864877284
6790000000.0 0.0007998624932952225 0.0001816100993892178
6791000000.0 0.0007811846444383264 -0.00046328644384630024
6792000000.0 0.0005129292258061469 -0.0005950948689132929
6793000000.0 0.00024421882699243724 -0.0009996694279834628
6794000000.0 -0.00011499467655085027 -0.0007796501158736646
6795000000.0 -0.0005770490970462561 -0.0007479412015527487
6796000000.0 -0.0008313049329444766 -0.0003178594051860273
6797000000.0 -0.0009899088181555271 0.0001282667653867975
6798000000.0 -0.0005401615635491908 0.0006281225942075253
6799000000.0 -0.0003762109554372728 0.0008442547405138612
6800000000.0 -1.9614525115230208e-07 0.0008773357258178294
6801000000.0 0.0003676061751320958 0.0006627896218560636
6802000000.0 0.000926189764868468 0.0004770255764015019
6803000000.0 0.0008980142883956432 -6.25058964942582e-05
6804000000.0 0.0008261508774012327 -0.0003030038205906749
6805000000.0 0.0005101662245579064 -0.0008136180695146322
6806000000.0 3.6369037843542174e-05 -0.0009284144616685808
6807000000.0 -0.0002931400085799396 -0.0007978079956956208
6808000000.0 -0.0005307639949023724 -0.00034334041993133724
6809000000.0 -0.0008091753115877509 -0.0001292080560233444
6810000000.0 -0.0006681393715552986 0.0001921555958688259
6811000000.0 -0.0005788467242382467 0.00048159953439608216
6812000000.0 -0.00022838768200017512 0.0007716206018812954
6813000000.0 -8.49215139169246e-05 0.0007819734164513648
6814000000.0 0.0004959951620548964 0.0006832500803284347
6815000000.0 0.0007749292417429388 0.0001742263266351074
6816000000.0 0.0007255830569192767 -3.0140772651066072e-05
6817000000.0 0.0006562888738699257 -0.0005236974684521556
6818000000.0 0.00027764993137679994 -0.0006470187800005078
6819000000.0 -4.854917642660439e-05 -0.0006444074097089469
6820000000.0 -0.0005111139616928995 -0.0006378947873599827
6821000000.0 -0.0007525777909904718 -0.0004787950892932713
6822000000.0 -0.0007929457351565361 0.00011652825196506456
6823000000.0 -0.0006876109400764108 0.00013164505071472377
6824000000.0 -0.0003913907567039132 0.0006769466563127935
6825000000.0 -0.00015658565098419785 0.0007057791226543486
6826000000.0 0.00021576194558292627 0.0006664120010100305
6827000000.0 0.0005391078884713352 0.0005176647682674229
6828000000.0 0.0006962307961657643 0.00022680645633954555
6829000000.0 0.0007457322208210826 -0.00014119864499662071
6830000000.0 0.0005777361802756786 -0.0005215450655668974
6831000000.0 0.0003581176570151001 -0.0007203019922599196
6832000000.0 -0.00019716855604201555 -0.0006966421497054398
6833000000.0 -0.0005371308070607483 -0.0005733813741244376
6834000000.0 -0.0007279408164322376 -0.00024950792430900037
6835000000.0 -0.0008080112165771425 -8.823347889119759e-05
6836000000.0 -0.0006192562868818641 9.793849312700331e-05
6837000000.0 -0.0002365178515901789 0.000608772796113044
6838000000.0 -0.00011294658179394901 0.0005908679449930787
6839000000.0 0.0001694947568466887 0.0005412830505520105
6840000000.0 0.00039442922570742667 0.00030576990684494376
6841000000.0 0.0006406294414773583 7.597576041007414e-05
6842000000.0 0.0007433556602336466 -0.00017974033835344017
6843000000.0 0.00031178558128885925 -0.0004302850575186312
6844000000.0 0.00026995467487722635 -0.0006003721500746906
6845000000.0 -0.0002448350714985281 -0.0006935588899068534
6846000000.0 -0.0003953413397539407 -0.0004086833796463907
6847000000.0 -0.0005774169694632292 -0.00026412183069624007
6848000000.0 -0.0005477602244354784 0.00013279012637212873
6849000000.0 -0.0005162995657883584 0.0003704436821863055
6850000000.0 -0.00029359859763644636 0.0005779971252195537
6851000000.0 1.3849910828866996e-05 0.00048094321391545236
6852000000.0 0.0003408212214708328 0.000590805197134614
6853000000.0 0.0005057925591245294 0.0003693337203003466
6854000000.0 0.0008350866846740246 0.00019050095579586923
6855000000.0 0.000588494585826993 -0.0002858128573279828
6856000000.0 0.0003535214636940509 -0.00047738116700202227
6857000000.0 0.0001049715792760253 -0.000501145317684859
6858000000.0 -7.3412069468759e-05 -0.00047254760283976793
6859000000.0 -0.0002842944231815636 -0.0004092422022949904
6860000000.0 -0.0004857850435655564 -0.0002859269152395427
6861000000.0 -0.0007186589064076543 5.68479772482533e-05
6862000000.0 -0.0006320882239378989 0.00026471924502402544
6863000000.0 -0.0004394382413011044 0.00045061015407554805
6864000000.0 -0.00010284895688528195 0.0005803308449685574
6865000000.0 4.557548891170882e-05 0.0005009433371014893
6866000000.0 0.00047413239371962845 0.0002242910413770005
6867000000.0 0.0005048498860560358 0.00017260161985177547
6868000000.0 0.0007468977710232139 -0.00016502043581567705
6869000000.0 0.00046995372395031154 -0.00026623683515936136
6870000000.0 0.00026127463206648827 -0.0006128639215603471
6871000000.0 -3.8001337088644505e-05 -0.0006299132946878672
6872000000.0 -0.00032557002850808203 -0.0005502012791112065
6873000000.0 -0.0005311620770953596 -0.00024179273168556392
6874000000.0 -0.0006332398625090718 5.896986840525642e-05
6875000000.0 -0.0005452971090562642 0.00031645322451367974
6876000000.0 -0.0003511070681270212 0.0005366139230318367
6877000000.0 3.946188371628523e-05 0.0006144671933725476
6878000000.0 0.00019421469187363982 0.000566586502827704
6879000000.0 0.0004806850338354707 0.00022477080347016454
6880000000.0 0.0005099904956296086 3.685815681819804e-05
6881000000.0 0.0003238091594539583 -0.00025087452377192676
6882000000.0 0.00030334171606227756 -0.0002924171567428857
6883000000.0 -2.904184839280788e-05 -0.0004810667596757412
6884000000.0 -0.00014792919682804495 -0.0004585974384099245
6885000000.0 -0.00032144642318598926 -0.0002066341257886961
6886000000.0 -0.0004913121811114252 -0.00010676575766410679
6887000000.0 -0.0004125909472350031 0.00017732460401020944
6888000000.0 -0.00019911077106371522 0.0004284579190425575
6889000000.0 -0.00018500575970392674 0.0004829904646612704
6890000000.0 -2.472846426826436e-05 0.0004872055724263191
6891000000.0 0.00023650685034226626 0.0002744988596532494
6892000000.0 0.0003260841767769307 0.00029927544528618455
6893000000.0 0.0005084977019578218 7.594921044073999e-05
6894000000.0 0.0003711237804964185 -0.0001532008609501645
6895000000.0 8.845706179272383e-05 -0.0002731260610744357
6896000000.0 7.197946251835674e-05 -0.00026325651560910046
6897000000.0 0.00010434241266921163 -0.0003475194098427892
6898000000.0 -9.294069604948163e-05 -0.0003222210507374257
6899000000.0 -0.0002903705171775073 -9.039477299666032e-05
6900000000.0 -0.00043388636549934745 8.784706005826592e-05
6901000000.0 -0.00028104838565923274 9.823869913816452e-05
6902000000.0 -7.73430583649315e-05 0.0001848371175583452
6903000000.0 -7.884918159106746e-05 0.00018872684449888766
6904000000.0 3.6873174394713715e-05 8.125678868964314e-05
6905000000.0 0.00013021055201534182 0.00014301363262347877
6906000000.0 0.00020752249110955745 0.00023133319336920977
6907000000.0 0.00035151452175341547 6.496850255643949e-05
6908000000.0 0.00040737318340688944 -6.333817873382941e-05
6909000000.0 0.00041047472041100264 -0.0001972382888197899
6910000000.0 0.0001942458184203133 -0.00034883845364674926
6911000000.0 -3.374827065272257e-05 -0.0003700193192344159
6912000000.0 -0.0001501342630945146 -0.00028347468469291925
6913000000.0 -0.0003122797061223537 -0.00014007388381287456
6914000000.0 -0.0005019363597966731 -0.00012127050285926089
6915000000.0 -0.00029841825016774237 0.00016773567767813802
6916000000.0 -0.00017757229215931147 0.00041168989264406264
6917000000.0 -2.1620653569698334e-05 0.0003699660301208496
6918000000.0 -3.172566357534379e-05 0.0004944968968629837
6919000000.0 0.00023688157671131194 0.00037209506263025105
6920000000.0 0.00046962674241513014 0.0001598161325091496
6921000000.0 0.0005261753685772419 -0.00012382230488583446
6922000000.0 0.00041382649214938283 -0.0003060719755012542
6923000000.0 0.00029981034458614886 -0.0006697898497804999
6924000000.0 -5.9599977248581126e-05 -0.000668472028337419
6925000000.0 -0.000334479525918141 -0.0006475168629549444
6926000000.0 -0.0005739514599554241 -0.00030954930116422474
6927000000.0 -0.0005500961560755968 8.479852112941444e-05
6928000000.0 -0.0006104565691202879 0.00028048676904290915
6929000000.0 -0.00029210353386588395 0.0007020379998721182
6930000000.0 5.963275543763302e-05 0.0006982989143580198
6931000000.0 0.0004151368630118668 0.000568850024137646
6932000000.0 0.0007037642644718289 0.0004571099707391113
6933000000.0 0.0007667600875720382 4.8766491090646014e-05
6934000000.0 0.0006543562049046159 -0.0003816435346379876
6935000000.0 0.00040049897506833076 -0.0005799955106340349
6936000000.0 0.00010447197564644739 -0.0006441974546760321
6937000000.0 -0.00024303195823449641 -0.0005423540715128183
6938000000.0 -0.0005150122451595962 -0.0004807391669601202
6939000000.0 -0.0006631496362388134 -0.00010105218825628981
6940000000.0 -0.0006589825497940183 0.00032232707599177957
6941000000.0 -0.00048286039964295924 0.0007095554028637707
6942000000.0 -0.00023407040862366557 0.0006116075091995299
6943000000.0 0.0001747939531924203 0.0006930032395757735
6944000000.0 0.0005435222992673516 0.0005528730107471347
6945000000.0 0.0006926411297172308 0.00010271915380144492
6946000000.0 0.0007101811934262514 -0.00012602299102582037
6947000000.0 0.0005563548766076565 -0.0004929182468913496
6948000000.0 0.0003125603834632784 -0.0006672866875305772
6949000000.0 -0.00011032932525267825 -0.000662808190099895
6950000000.0 -0.00039652595296502113 -0.000698962714523077
6951000000.0 -0.0006568102398887277 -0.0001856955495895818
6952000000.0 -0.0007083285599946976 6.72926107654348e-05
6953000000.0 -0.0007144788978621364 0.0003255563788115978
6954000000.0 -0.00042771967127919197 0.0006925461930222809
6955000000.0 -3.544811625033617e-05 0.0007559788646176457
6956000000.0 0.0002579268766567111 0.0005731721175834537
6957000000.0 0.0005010548047721386 0.0003040299052372575
6958000000.0 0.0007243782165460289 8.319361950270832e-05
6959000000.0 0.0005893652560189366 -0.0003493576659820974
6960000000.0 0.0003584048245102167 -0.0006568967364728451
6961000000.0 -1.0580813977867365e-05 -0.0007159633096307516
6962000000.0 -0.0002515863161534071 -0.000595444580540061
6963000000.0 -0.0003734530764631927 -0.0003109051031060517
6964000000.0 -0.0004980660160072148 -0.00012669121497310698
6965000000.0 -0.000631652947049588 0.00021898873092141002
6966000000.0 -0.0004929999122396111 0.0004032794968225062
6967000000.0 -0.00028302244027145207 0.0005188892828300595
6968000000.0 5.239154052105732e-05 0.0005172876408323646
6969000000.0 0.00031656993087381124 0.0003750495088752359
6970000000.0 0.0005727935349568725 0.00010974000178975984
6971000000.0 0.0005821423255838454 3.4865064662881196e-05
6972000000.0 0.0005211764364503324 -0.0003649525751825422
6973000000.0 0.00030280413920991123 -0.000541707209777087
6974000000.0 0.00012247635459061712 -0.0004971270682290196
6975000000.0 -0.00016166595742106438 -0.0005174296093173325
6976000000.0 -0.00035068942815996706 -0.0003174583544023335
6977000000.0 -0.0006124575738795102 -7.594969792990014e-05
6978000000.0 -0.0004212601634208113 0.00010068345000036061
6979000000.0 -0.0002415704366285354 0.00043885651393793523
6980000000.0 -0.00011170184006914496 0.00042603962356224656
6981000000.0 -5.958926340099424e-05 0.0005226963548921049
6982000000.0 0.0003377125831320882 0.00039114904939197004
6983000000.0 0.0003543685597833246 0.00019111050642095506
6984000000.0 0.0006316898507066071 -4.6237692004069686e-05
6985000000.0 0.0002920889528468251 -0.00034256812068633735
6986000000.0 0.0002513337240088731 -0.00033158838050439954
6987000000.0 -6.202444637892768e-06 -0.0005563367158174515
6988000000.0 -0.0002173250395571813 -0.0004101727099623531
6989000000.0 -0.00035396177554503083 -0.0001995706552406773
6990000000.0 -0.0004096421180292964 2.9656086553586647e-05
6991000000.0 -0.00035576141090132296 0.00012656838225666434
6992000000.0 -0.0002718724135775119 0.00033972918754443526
6993000000.0 2.087419488816522e-05 0.00043640786316245794
6994000000.0 0.00011638543219305575 0.0004768017097376287
6995000000.0 0.0002242270129499957 0.0003034279798157513
6996000000.0 0.00038773383130319417 0.00013585382839664817
6997000000.0 0.000374234514310956 -2.7761541787185706e-05
6998000000.0 0.00044919110951013863 -0.00021282074158079922
6999000000.0 0.000294247642159462 -0.0003358487447258085
7000000000.0 0.0001278775162063539 -0.00042565734474919736
