! Created with skrf 1.10.0 (http://scikit-rf.org).
# Hz S RI R 50.0 
!freq ReS11 ImS11
!
6000000000.0 0.00043765699956566095 0.0012250130530446768
6001000000.0 0.0010815411806106567 0.0008234033593907952
6002000000.0 0.001096635591238737 0.0004030415730085224
6003000000.0 0.0012746105203405023 -0.00022392837854567915
6004000000.0 0.0009586070664227009 -0.0008143846644088626
6005000000.0 0.0002779698115773499 -0.0010755022522062063
6006000000.0 -0.00019895733566954732 -0.0011398750357329845
6007000000.0 -0.0006413599476218224 -0.0009074337431229651
6008000000.0 -0.0011397642083466053 -0.00048042210983112454
6009000000.0 -0.0011634713737294078 1.527411768620368e-05
6010000000.0 -0.0009101906325668097 0.000687088817358017
6011000000.0 -0.0006597667234018445 0.0009219596395269036
6012000000.0 7.177155930548906e-05 0.0012530919630080462
6013000000.0 0.00043323851423338056 0.0010038404725492
6014000000.0 0.0008507056045345962 0.0007428433164022863
6015000000.0 0.0011255358112975955 0.00022713601356372237
6016000000.0 0.0010521418880671263 -0.0003302815603092313
6017000000.0 0.0007208731258288026 -0.000852652417961508
6018000000.0 0.00022435381833929569 -0.0010498182382434607
6019000000.0 -0.0002980195276904851 -0.0010480341734364629
6020000000.0 -0.0006568254320882261 -0.0008228468359448016
6021000000.0 -0.0010385813657194376 -0.00034496825537644327
6022000000.0 -0.001058445661328733 1.117889132729033e-05
6023000000.0 -0.0008517375681549311 0.0005080157425254583
6024000000.0 -0.0004752344684675336 0.0009968928061425686
6025000000.0 7.590719178551808e-05 0.0010392344556748867
6026000000.0 0.00047125713899731636 0.0009923360776156187
6027000000.0 0.0009960777824744582 0.0005543017759919167
6028000000.0 0.0009451374062336981 6.829877384006977e-05
6029000000.0 0.0009034858085215092 -0.0004877234168816358
6030000000.0 0.0007021803176030517 -0.0007100607617758214
6031000000.0 0.0003352198109496385 -0.0008613240206614137
6032000000.0 -0.00025181230739690363 -0.000998080475255847
6033000000.0 -0.0006611254066228867 -0.0005785974208265543
6034000000.0 -0.0007965796976350248 -0.00032042391831055284
6035000000.0 -0.0010254501830786467 4.2946649045916274e-05
6036000000.0 -0.000747261627111584 0.000527288590092212
6037000000.0 -0.0005238451412878931 0.0008207166101783514
6038000000.0 -0.00013727828627452254 0.0009219032945111394
6039000000.0 0.0003992125566583127 0.0006946745561435819
6040000000.0 0.000714408524800092 0.0005635731504298747
6041000000.0 0.0009008589549921453 0.00015113972767721862
6042000000.0 0.0009086154168471694 -0.00021443722653202713
6043000000.0 0.0005489552859216928 -0.0006212529842741787
6044000000.0 0.0002671282854862511 -0.0007533158059231937
6045000000.0 -0.00017152608779724687 -0.0008694320567883551
6046000000.0 -0.00046987683163024485 -0.0008247056393884122
6047000000.0 -0.0007148249424062669 -0.0004978222423233092
6048000000.0 -0.0008803997770883143 -5.79060179006774e-05
6049000000.0 -0.0008586719050072134 0.0004214029759168625
6050000000.0 -0.0004132880421821028 0.0006665834807790816
6051000000.0 -9.982698975363746e-05 0.0007849269895814359
6052000000.0 0.00032474249019287527 0.0007861008052714169
6053000000.0 0.0007560872472822666 0.0005392222083173692
6054000000.0 0.0008646018104627728 0.00024766699061729014
6055000000.0 0.0009419729467481375 -0.00016598285583313555
6056000000.0 0.0005891642649658024 -0.0006938424776308239
6057000000.0 0.00024184322683140635 -0.0007720216526649892
6058000000.0 -5.028500527259894e-05 -0.0008954795775935054
6059000000.0 -0.0005917071830481291 -0.0007706351461820304
6060000000.0 -0.0009038588032126427 -0.0004614650970324874
6061000000.0 -0.000911843148060143 4.541711678029969e-05
6062000000.0 -0.0006758933886885643 0.0005388277349993587
6063000000.0 -0.0005491318879649043 0.0006702450918965042
6064000000.0 -5.800035432912409e-05 0.000988441170193255
6065000000.0 0.00028402922907844186 0.0009188266703858972
6066000000.0 0.0006582597270607948 0.0006250861333683133
6067000000.0 0.0008550091879442334 0.0002313956938451156
6068000000.0 0.0008234194247052073 -0.00013059127377346158
6069000000.0 0.000693764362949878 -0.00046900450251996517
6070000000.0 0.0003307057486381382 -0.0009311929461546242
6071000000.0 -0.00019204971613362432 -0.0011215541744604707
6072000000.0 -0.0005557052209042013 -0.000709588814061135
6073000000.0 -0.0009093760745599866 -0.00034022011095657945
6074000000.0 -0.0009815694065764546 -0.0001719590654829517
6075000000.0 -0.0008459139498881996 0.00034921171027235687
6076000000.0 -0.0005214313277974725 0.0007046266691759229
6077000000.0 -0.0001283932797377929 0.0011807269183918834
6078000000.0 0.000341956241754815 0.0008862234535627067
6079000000.0 0.0008434994961135089 0.0006710307789035141
6080000000.0 0.001023970078676939 0.0001357061555609107
6081000000.0 0.0010708391200751066 -0.00023147840693127364
6082000000.0 0.0004644361906684935 -0.0007051084539853036
6083000000.0 0.000277578248642385 -0.001023771008476615
6084000000.0 -0.00021488625498022884 -0.0009639369091019034
6085000000.0 -0.000522702292073518 -0.0009366214508190751
6086000000.0 -0.0008840255322866142 -0.0005815837648697197
6087000000.0 -0.001068310346454382 -5.667516597895883e-05
6088000000.0 -0.0008544431766495109 0.0005649146041832864
6089000000.0 -0.00033099501160904765 0.0008277843589894474
6090000000.0 -0.00015126181824598461 0.0010255674133077264
6091000000.0 0.0005202923784963787 0.0010834927670657635
6092000000.0 0.0006468798965215683 0.0006826113676652312
6093000000.0 0.0011121985735371709 4.3028394429711625e-05
6094000000.0 0.0011441833339631557 -0.00044362680637277663
6095000000.0 0.0006979684112593532 -0.000686456507537514
6096000000.0 0.0002265108487335965 -0.0011272378033027053
6097000000.0 -0.00020207920169923455 -0.0009014401584863663
6098000000.0 -0.00041448549018241465 -0.0007127124117687345
6099000000.0 -0.0009083977784030139 -0.00029744638595730066
6100000000.0 -0.0010696891695261002 0.0002703149802982807
6101000000.0 -0.0008499325485900044 0.00032409687992185354
6102000000.0 -0.0004932646406814456 0.0008836984052322805
6103000000.0 2.4562079488532618e-05 0.0011260868050158024
6104000000.0 0.0005751356366090477 0.0008427079883404076
6105000000.0 0.0007405405631288886 0.0005751588032580912
6106000000.0 0.0008047648589126766 0.00013778753054793924
6107000000.0 0.0010632238117977977 -0.00032705371268093586
6108000000.0 0.0008170590153895319 -0.0006830074707977474
6109000000.0 0.00012986792717128992 -0.0009150861878879368
6110000000.0 -8.595409599365667e-05 -0.0011314423754811287
6111000000.0 -0.0006031786906532943 -0.0008901893743313849
6112000000.0 -0.0007756785489618778 -0.00046734290663152933
6113000000.0 -0.0011679126182571054 -1.6288877304759808e-05
6114000000.0 -0.0008330330601893365 0.0006196261383593082
6115000000.0 -0.00032930803718045354 0.000914852018468082
6116000000.0 0.00013182962720748037 0.0011841107625514269
6117000000.0 0.0003531042311806232 0.0009336096700280905
6118000000.0 0.0007880197372287512 0.0007164331036619842
6119000000.0 0.0010518175549805164 7.720749999862164e-05
6120000000.0 0.0011055277427658439 -0.00020385975949466228
6121000000.0 0.0006255938205868006 -0.0009950813837349415
6122000000.0 0.0002782693482004106 -0.0010600949171930552
6123000000.0 -0.00038960299571044743 -0.0012023035669699311
6124000000.0 -0.0006006936309859157 -0.00061403977451846
6125000000.0 -0.000989675521850586 -0.0003175187448505312
6126000000.0 -0.001187712186947465 0.00019589901785366237
6127000000.0 -0.0008622420718893409 0.0009155021980404854
6128000000.0 -0.0006471019005402923 0.0011261942563578486
6129000000.0 0.0002341264917049557 0.0011409823782742023
6130000000.0 0.0007642105338163674 0.001027224468998611
6131000000.0 0.0009857174009084702 0.0003811234491877258
6132000000.0 0.0011785313254222274 -0.00011080251715611666
6133000000.0 0.0009997121524065733 -0.000389098102459684
6134000000.0 0.0005322544020600617 -0.0010820254683494568
6135000000.0 0.0003855063987430185 -0.0011697985464707017
6136000000.0 -0.00045420011156238616 -0.0009016836411319673
6137000000.0 -0.0008344081579707563 -0.0007710976060479879
6138000000.0 -0.0011110532796010375 -0.0003386898315511644
6139000000.0 -0.001034463639371097 0.00017665079212747514
6140000000.0 -0.0007615297217853367 0.0007294330862350762
6141000000.0 -0.00046674651093780994 0.0011972367065027356
6142000000.0 0.00030946789775043726 0.0008965163142420352
6143000000.0 0.0008815372711978853 0.0008907850715331733
6144000000.0 0.0009192826692014933 0.0003207139379810542
6145000000.0 0.001057892106473446 -0.00021160069445613772
6146000000.0 0.0008283018250949681 -0.0007663398282602429
6147000000.0 0.0006921979365870357 -0.0009450356010347605
6148000000.0 -3.649354403023608e-05 -0.0010707252658903599
6149000000.0 -0.0004206289886496961 -0.0008505896548740566
6150000000.0 -0.0007723814924247563 -0.0006524858763441443
6151000000.0 -0.0010193673660978675 -5.947125828242861e-05
6152000000.0 -0.0009271265007555485 0.0004326299822423607
6153000000.0 -0.0007281100261025131 0.0007787948125042021
6154000000.0 -0.0002251913829240948 0.0010422362247481942
6155000000.0 0.0002024852146860212 0.0009113748092204332
6156000000.0 0.0008669696399010718 0.0005325484671629965
6157000000.0 0.0010693289805203676 0.0004785915371030569
6158000000.0 0.0009865326574072242 3.935602944693528e-05
6159000000.0 0.0009917619172483683 -0.0005812005838379264
6160000000.0 0.0006229313439689577 -0.0008737579919397831
6161000000.0 -0.000262353423750028 -0.0010225368896499276
6162000000.0 -0.00038948969449847937 -0.0008473234483972192
6163000000.0 -0.0006747408187948167 -0.00063915248028934
6164000000.0 -0.0009064565529115498 -0.0002471562474966049
6165000000.0 -0.0009932656539604068 0.0005547608016058803
6166000000.0 -0.0006444160244427621 0.0007463966030627489
6167000000.0 -0.0003001161094289273 0.000979732722043991
6168000000.0 0.00016024157230276614 0.0008389787399210036
6169000000.0 0.0005749379633925855 0.0008610089425928891
6170000000.0 0.000980291166342795 0.00018957327120006084
6171000000.0 0.0011130082421004772 -0.00012628472177311778
6172000000.0 0.0010038773762062192 -0.0006258845096454024
6173000000.0 0.0002909204631578177 -0.0008916488150134683
6174000000.0 -0.0001692553487373516 -0.0010230732150375843
6175000000.0 -0.0003784846339840442 -0.0008417482604272664
6176000000.0 -0.000821561727207154 -0.0004858636239077896
6177000000.0 -0.0010418862802907825 -0.00013919446791987866
6178000000.0 -0.001021436182782054 0.0002242331247543916
6179000000.0 -0.0007999396766535938 0.0007330430089496076
6180000000.0 -0.00014268224185798317 0.0009049364016391337
6181000000.0 0.00028155322070233524 0.0009618723997846246
6182000000.0 0.0006545484066009521 0.0008551605278626084
6183000000.0 0.0010284167947247624 0.0004808921949006617
6184000000.0 0.0009361151023767889 -2.571323057054542e-05
6185000000.0 0.0010105879046022892 -0.0005115806707181036
6186000000.0 0.00036609804374165833 -0.000954404822550714
6187000000.0 -4.269253258826211e-05 -0.0009729936718940735
6188000000.0 -0.0003479334118310362 -0.0008786531980149448
6189000000.0 -0.0007891613058745861 -0.0006856808322481811
6190000000.0 -0.0010078485356643796 -2.7022331323678372e-06
6191000000.0 -0.0007744989707134664 0.0004578453372232616
6192000000.0 -0.0008016328793019056 0.0008114376105368137
6193000000.0 -0.0002037272060988471 0.0010477857431396842
6194000000.0 0.00021574644779320806 0.001077140448614955
6195000000.0 0.0006737835356034338 0.0009466687333770096
6196000000.0 0.0010360035812482238 0.0002490896440576762
6197000000.0 0.0012541069881990552 -0.00011929989705095068
6198000000.0 0.0010838527232408524 -0.0006744494894519448
6199000000.0 0.0006634978926740587 -0.001021897536702454
6200000000.0 -8.614054968347773e-05 -0.001231823698617518
6201000000.0 -0.0007495750323869288 -0.0009053196990862489
6202000000.0 -0.0010411415714770555 -0.0005967061151750386
6203000000.0 -0.001234411378391087 -4.9579113692743704e-05
6204000000.0 -0.001008634571917355 0.0004982620594091713
6205000000.0 -0.0007204290013760328 0.0009349603787995875
6206000000.0 -0.0001430725387763232 0.00117456482257694
6207000000.0 0.0004667199682444334 0.0012531601823866367
6208000000.0 0.0008253408595919609 0.0007859081961214542
6209000000.0 0.0010206240694969893 0.0002707823587115854
6210000000.0 0.0011826851405203342 -0.00016906503878999501
6211000000.0 0.0008645956986583769 -0.0008189379004761577
6212000000.0 0.0004208071331959218 -0.0009886495536193252
6213000000.0 -0.00017878469952847809 -0.0010783809702843428
6214000000.0 -0.0006987475208006799 -0.0009689884609542787
6215000000.0 -0.0010092089651152492 -0.0006335963262245059
6216000000.0 -0.0012841335264965892 -3.47508757840842e-05
6217000000.0 -0.0009935314301401377 0.0006043879548087716
6218000000.0 -0.0004716656112577766 0.0009777426021173596
6219000000.0 -7.030060805846006e-05 0.0010317954001948237
6220000000.0 0.0005187038332223892 0.001048583653755486
6221000000.0 0.0008794103632681072 0.0008233242551796138
6222000000.0 0.0013331790687516332 0.00017768882389646024
6223000000.0 0.0011732541024684906 -0.00044084322871640325
6224000000.0 0.0007456526509486139 -0.0008772897417657077
6225000000.0 0.00013174755440559238 -0.0010459234472364187
6226000000.0 -0.0003010633517988026 -0.0012102110777050257
6227000000.0 -0.0005855453782714903 -0.0009308448061347008
6228000000.0 -0.0010156257776543498 -0.0005215583951212466
6229000000.0 -0.001307511469349265 0.0002112114307237789
6230000000.0 -0.0008890634635463357 0.0007829081732779741
6231000000.0 -0.00047844465007074177 0.0008766750688664615
6232000000.0 9.064287587534636e-05 0.0011535001685842872
6233000000.0 0.0006833265069872141 0.0010320029687136412
6234000000.0 0.0010175594361498952 0.0006242446252144873
6235000000.0 0.0009651440777815878 -6.9291227191570215e-06
6236000000.0 0.0010245810262858868 -0.00039727729745209217
6237000000.0 0.0006868973141536117 -0.0009147388627752662
6238000000.0 0.00022336942492984235 -0.0010180975077673793
6239000000.0 -0.0002985172322951257 -0.0010308788623660803
6240000000.0 -0.0009060079464688897 -0.0008580933208577335
6241000000.0 -0.0010300512658432126 -0.0002544076123740524
6242000000.0 -0.0010988384019583464 9.564468200551346e-05
6243000000.0 -0.0009505691705271602 0.0006098419544287026
6244000000.0 -0.0004466879472602159 0.001008919789455831
6245000000.0 0.00028088362887501717 0.00103100948035717
6246000000.0 0.0004440367338247597 0.0008627926581539214
6247000000.0 0.0009411390055902302 0.000508058350533247
6248000000.0 0.0009358751703985035 -9.515829879092053e-05
6249000000.0 0.0008152492227964103 -0.0005624221521429718
6250000000.0 0.0005152058438397944 -0.0006339546525850892
6251000000.0 2.3000735382083803e-05 -0.0008405239204876125
6252000000.0 -0.0003075391286984086 -0.0008708336972631514
6253000000.0 -0.0006227324483916163 -0.0005977111286483705
6254000000.0 -0.0009916287381201982 -0.00045659972238354385
6255000000.0 -0.000781732436735183 0.00011828642163891345
6256000000.0 -0.000766236160416156 0.0006059877923689783
6257000000.0 -0.00037773363874293864 0.0009158049942925572
6258000000.0 -3.768370515899733e-05 0.0009232236770913005
6259000000.0 0.00035759108141064644 0.0006805357988923788
6260000000.0 0.0008974212687462568 0.0004467759281396866
6261000000.0 0.0010485252132639289 -3.1695406505605206e-05
6262000000.0 0.0008801804506219923 -0.0003968910896219313
6263000000.0 0.0005834595649503171 -0.0006871420773677528
6264000000.0 0.0003051864041481167 -0.0009351825574412942
6265000000.0 -0.00029417462064884603 -0.0009413756779395044
6266000000.0 -0.000549320422578603 -0.0005350298015400767
6267000000.0 -0.0006965427892282605 -0.0002922043204307556
6268000000.0 -0.000876877864357084 0.00016780407167971134
6269000000.0 -0.0008373599266633391 0.0004716712574008852
6270000000.0 -0.0004498594789765775 0.0006954663549549878
6271000000.0 1.575060741743073e-05 0.0009419008856639266
6272000000.0 0.000297408492770046 0.0007261217106133699
6273000000.0 0.0006867647753097117 0.000590197741985321
6274000000.0 0.0007982467068359256 7.215390360215679e-05
6275000000.0 0.00083284912398085 -0.00032366529922001064
6276000000.0 0.0006865453906357288 -0.0005680210306309164
6277000000.0 0.00024503006716258824 -0.0008539033588021994
6278000000.0 -8.710764814168215e-05 -0.0008179242722690105
6279000000.0 -0.00046300404937937856 -0.0008154239039868116
6280000000.0 -0.0007046514074318111 -0.0005673278355970979
6281000000.0 -0.0009041941957548261 0.00011843818356283009
6282000000.0 -0.0008714943542145193 0.0003604698576964438
6283000000.0 -0.0005843237740918994 0.0006464823381975293
6284000000.0 -6.124246283434331e-05 0.0008958968101069331
6285000000.0 0.00039074194501154125 0.0009561076876707375
6286000000.0 0.0006694314652122557 0.0006391824572347105
6287000000.0 0.0008829851285554469 0.00031302953721024096
6288000000.0 0.0010233389912173152 -0.0002408617438049987
6289000000.0 0.000716290611308068 -0.000630642578471452
6290000000.0 0.00030402271659113467 -0.000826834118925035
6291000000.0 -9.76524970610626e-05 -0.0010651287157088518
6292000000.0 -0.0005617248243652284 -0.000889189075678587
6293000000.0 -0.0007463781512342393 -0.0005583393503911793
6294000000.0 -0.000879651284776628 -9.537636651657522e-05
6295000000.0 -0.0009666802943684161 0.00044377506128512323
6296000000.0 -0.0007454660953953862 0.0009494293481111526
6297000000.0 -0.00033301388612017035 0.001150595722720027
6298000000.0 0.00015377459931187332 0.0011747711105272174
6299000000.0 0.000690665387082845 0.0008656636928208172
6300000000.0 0.0009606780367903411 0.00027361727552488446
6301000000.0 0.0010921988869085908 -0.00026400230126455426
6302000000.0 0.0010010239202529192 -0.0007175530772656202
6303000000.0 0.0005524683510884643 -0.0010872152633965015
6304000000.0 -3.27672969433479e-05 -0.0012773089110851288
6305000000.0 -0.0005431158351711929 -0.0011288028908893466
6306000000.0 -0.0010843835771083832 -0.0006477885181084275
6307000000.0 -0.0014036052161827683 -7.657954847672954e-05
6308000000.0 -0.0011655989801511168 0.0006003029993735254
6309000000.0 -0.000774323008954525 0.0010421016486361623
6310000000.0 -0.0002291992277605459 0.0012665983522310853
6311000000.0 0.0004898541956208646 0.0012782240519300103
6312000000.0 0.0011679567396640778 0.000854509649798274
6313000000.0 0.001404204173013568 0.00011144651944050565
6314000000.0 0.0011749319965019822 -0.0004988772561773658
6315000000.0 0.0010514833265915513 -0.001093276310712099
6316000000.0 0.0002989807107951492 -0.0014118185499683022
6317000000.0 -0.0003925613418687135 -0.0012409441405907273
6318000000.0 -0.0010851607657968998 -0.00100541184656322
6319000000.0 -0.0011736337328329682 -0.00038391214911825955
6320000000.0 -0.0013487535761669278 0.0002848317672032863
6321000000.0 -0.0009416327811777592 0.0009437124826945364
6322000000.0 -0.00044879663619212806 0.0013547122944146395
6323000000.0 0.0002819001383613795 0.0013541753869503736
6324000000.0 0.000823549460619688 0.0010837434092536569
6325000000.0 0.0013234452344477177 0.0005671099643222988
6326000000.0 0.00129806250333786 -0.00022268273460213095
6327000000.0 0.0011058589443564415 -0.0006236385670490563
6328000000.0 0.0004439296026248485 -0.001134584890678525
6329000000.0 -5.647838406730443e-05 -0.0012719380902126431
6330000000.0 -0.0006167953251861036 -0.0010611563920974731
6331000000.0 -0.0010577014181762934 -0.0006856235559098423
6332000000.0 -0.001187957008369267 -6.999250035732985e-05
6333000000.0 -0.0010847800876945257 0.0004153201880399138
6334000000.0 -0.0006903740577399731 0.0008192806853912771
6335000000.0 -0.0001762951724231243 0.001128900796175003
6336000000.0 0.0003163297660648823 0.000992879387922585
6337000000.0 0.0008014520280994475 0.0008304885705001652
6338000000.0 0.0011036816285923123 0.0003258505603298545
6339000000.0 0.0011161890579387546 -0.00018668074335437268
6340000000.0 0.0008854743209667504 -0.0006919813458807766
6341000000.0 0.00044243919546715915 -0.0009083281620405614
6342000000.0 -7.568848377559334e-05 -0.0010133421747013927
6343000000.0 -0.0006168835097923875 -0.0008569348719902337
6344000000.0 -0.0009191087447106838 -0.0005612361710518599
6345000000.0 -0.001052205916494131 8.203055040212348e-05
6346000000.0 -0.001064517186023295 0.00040710627217777073
6347000000.0 -0.0006452634697780013 0.0007776833954267204
6348000000.0 -0.00010955039761029184 0.0009842250728979707
6349000000.0 0.00021152582485228777 0.0010368790244683623
6350000000.0 0.0006487885257229209 0.0006888341740705073
6351000000.0 0.0009163687354885042 0.00032507747528143227
6352000000.0 0.0010291456710547209 -0.0001775768178049475
6353000000.0 0.0007192834164015949 -0.0005113014485687017
6354000000.0 0.0004800049355253577 -0.0008370306459255517
6355000000.0 1.9604642602644162e-06 -0.0009724720730446279
6356000000.0 -0.0005114743835292757 -0.0009179238695651293
6357000000.0 -0.0008559244452044368 -0.0006694559706375003
6358000000.0 -0.0011336829047650099 -9.391530329594389e-05
6359000000.0 -0.0008994992822408676 0.00045967832556925714
6360000000.0 -0.000662042002659291 0.0008181516896001995
6361000000.0 -0.00024785951245576143 0.0009005516185425222
6362000000.0 0.0003349165781401098 0.001026062062010169
6363000000.0 0.0006938634905964136 0.0006405047024600208
6364000000.0 0.0009663723176345229 0.0004804195777978748
6365000000.0 0.0009029970970004797 -0.00021661148639395833
6366000000.0 0.0008156407857313752 -0.0006167267565615475
6367000000.0 0.0004012875724583864 -0.0008531126659363508
6368000000.0 -3.684106923174113e-05 -0.0011337343603372574
6369000000.0 -0.0005016852519474924 -0.0008422855753451586
6370000000.0 -0.0008434049668721855 -0.0005401804228313267
6371000000.0 -0.0009921517921611667 -0.0001546309795230627
6372000000.0 -0.0008783033117651939 0.0003272203612141311
6373000000.0 -0.0006524850614368916 0.0008082381682470441
6374000000.0 -0.00019105827959720045 0.0009042560122907162
6375000000.0 0.0003368882753420621 0.0009817907121032476
6376000000.0 0.0007472124416381121 0.0007799398154020309
6377000000.0 0.0009485373739153147 0.0003148032701574266
6378000000.0 0.0009716321364976466 -6.603140354854986e-05
6379000000.0 0.0008332566940225661 -0.0006581789348274469
6380000000.0 0.0003610819112509489 -0.0008450538734905422
6381000000.0 -0.00010122342791873962 -0.0010083535453304648
6382000000.0 -0.0004936012555845082 -0.0008872829494066536
6383000000.0 -0.0008804533863440156 -0.0005434807389974594
6384000000.0 -0.0009384914301335812 -0.00012770734610967338
6385000000.0 -0.000988159328699112 0.00036033117794431746
6386000000.0 -0.0006316656363196671 0.00081256142584607
6387000000.0 -0.0002424746344331652 0.0009920737938955426
6388000000.0 0.00035624721203930676 0.0009731387253850698
6389000000.0 0.0006777925882488489 0.0006282741669565439
6390000000.0 0.0009779375977814198 0.00037140591302886605
6391000000.0 0.0010208493331447244 -0.00023062767286319286
6392000000.0 0.0008312666323035955 -0.0006536305299960077
6393000000.0 0.00038266927003860474 -0.000871684867888689
6394000000.0 -6.12809308222495e-05 -0.0009969451930373907
6395000000.0 -0.0004789172380696982 -0.000848600990138948
6396000000.0 -0.0008907208684831858 -0.0006202803924679756
6397000000.0 -0.00101526640355587 -0.00015780881221871823
6398000000.0 -0.0009877064730972052 0.00035406817914918065
6399000000.0 -0.0006768047460354865 0.000804251991212368
6400000000.0 -0.00022288510808721185 0.0010253877844661474
6401000000.0 0.0003288400766905397 0.0010393239790573716
6402000000.0 0.0008168636122718453 0.0007368374499492347
6403000000.0 0.0010924016823992133 0.0002629779919516295
6404000000.0 0.0011471838224679232 -0.00025054955040104687
6405000000.0 0.000827921146992594 -0.0008057943196035922
6406000000.0 0.0004219145339448005 -0.0010827219812199473
6407000000.0 -5.63760258955881e-05 -0.0010639844695106149
6408000000.0 -0.0006782865384593606 -0.0009434485691599548
6409000000.0 -0.00104126229416579 -0.0004049100389238447
6410000000.0 -0.001134076388552785 9.940875315805897e-05
6411000000.0 -0.001021134783513844 0.0006496448186226189
6412000000.0 -0.0005781829240731895 0.001019360264763236
6413000000.0 -0.00010060967179015279 0.0011392873711884022
6414000000.0 0.00046569560072384775 0.00099751609377563
6415000000.0 0.0010888716205954552 0.0006645843386650085
6416000000.0 0.0010914173908531666 0.00014459746307693422
6417000000.0 0.0010682265274226665 -0.0006052429089322686
6418000000.0 0.0006010360666550696 -0.0010495246388018131
6419000000.0 0.00011844333494082093 -0.0011801359942182899
6420000000.0 -0.00047519555664621294 -0.0011204223847016692
6421000000.0 -0.0008728770771995187 -0.000724454817827791
6422000000.0 -0.0011628454085439444 -0.0001036147732520476
6423000000.0 -0.0011481695109978318 0.0004357023281045258
6424000000.0 -0.0007299410062842071 0.0008593990351073444
6425000000.0 -0.0002810475416481495 0.0010565792908892035
6426000000.0 0.00030146443168632686 0.0010472892317920923
6427000000.0 0.0006365969893522561 0.0008401386439800262
6428000000.0 0.0010023245122283697 0.0003598419134505093
6429000000.0 0.0009059578878805041 -8.678803715156391e-05
6430000000.0 0.0007984635303728282 -0.0005570717039518058
6431000000.0 0.0004541646339930594 -0.0008608804200775921
6432000000.0 -8.693067502463236e-05 -0.0009069008519873023
6433000000.0 -0.0004839337198063731 -0.0007524340762756765
6434000000.0 -0.0007867307867854834 -0.000409006723202765
6435000000.0 -0.0009389065089635551 -8.957047975854948e-05
6436000000.0 -0.0007962484378367662 0.00036408548476174474
6437000000.0 -0.0005414030165411532 0.0006869609351269901
6438000000.0 -0.00012804959260392934 0.0008263533818535507
6439000000.0 0.0002213780244346708 0.0008846340351738036
6440000000.0 0.0005458222585730255 0.0005796882905997336
6441000000.0 0.0007648879545740783 0.0002579917781986296
6442000000.0 0.0007540882215835154 -0.0001507041451986879
6443000000.0 0.0006629974232055247 -0.0005851288442499936
6444000000.0 0.00040663991239853203 -0.0007144782575778663
6445000000.0 -6.557728920597583e-05 -0.0007750893710181117
6446000000.0 -0.00040381733560934663 -0.0007178299129009247
6447000000.0 -0.0006935493438504636 -0.0003659628564491868
6448000000.0 -0.0008504244615323842 -7.683003786951303e-05
6449000000.0 -0.000719271251000464 0.0003435919643379748
6450000000.0 -0.00044083027751185 0.0005136175313964486
6451000000.0 -0.00012661922664847225 0.0006903564208187163
6452000000.0 0.00015998538583517075 0.0007549929432570934
6453000000.0 0.0005337168695405126 0.0005207756184972823
6454000000.0 0.0006851108046248555 0.00020473150652833283
6455000000.0 0.0006375485681928694 -1.852401146607008e-05
6456000000.0 0.0006772997439838946 -0.0004112684109713882
6457000000.0 0.00035473148454912007 -0.0006842478760518134
6458000000.0 4.145030470681377e-05 -0.0007329317159019411
6459000000.0 -0.0002628834918141365 -0.0005579684511758387
6460000000.0 -0.0005474608042277396 -0.0004677303077187389
6461000000.0 -0.0007560803787782788 -3.781175837502815e-05
6462000000.0 -0.0006789572071284056 0.00029104138957336545
6463000000.0 -0.00047111022286117077 0.0005418989458121359
6464000000.0 -0.000189188911463134 0.000706858467310667
6465000000.0 0.00019647979934234172 0.0007071051513776183
6466000000.0 0.0004435267182998359 0.0005728995311073959
6467000000.0 0.0007073205197229981 0.00022265528969001025
6468000000.0 0.0007227263413369656 -4.950292714056559e-05
6469000000.0 0.0006666234112344682 -0.0003741397231351584
6470000000.0 0.0004333984979894012 -0.0006139899487607181
6471000000.0 3.947196091758087e-05 -0.0007842225604690611
6472000000.0 -0.00025394820841029286 -0.0007298046839423478
6473000000.0 -0.000657051510643214 -0.00046665992704220116
6474000000.0 -0.0006966108339838684 -0.00012401651474647224
6475000000.0 -0.0006473833927884698 0.0001232838403666392
6476000000.0 -0.0005202667671255767 0.0005689379177056253
6477000000.0 -0.00024120871967170388 0.000708757434040308
6478000000.0 0.00012138674355810508 0.0006692014285363257
6479000000.0 0.0004952918970957398 0.0005564466118812561
6480000000.0 0.0006950768292881548 0.0002695151779334992
6481000000.0 0.0006958352169021964 -8.81305240909569e-05
6482000000.0 0.0006663799285888672 -0.0004147064464632422
6483000000.0 0.00033191320835612714 -0.0006557429442182183
6484000000.0 1.4492879927274771e-05 -0.0008160123834386468
6485000000.0 -0.0002833937178365886 -0.0007088117417879403
6486000000.0 -0.0005989465280435979 -0.0004849117831327021
6487000000.0 -0.0007419378380291164 -0.00022281506971921772
6488000000.0 -0.0007178399246186018 0.0003100285539403558
6489000000.0 -0.0006031682714819908 0.0005307491519488394
6490000000.0 -0.00019315550161991268 0.0007604320999234915
6491000000.0 8.668749069329351e-05 0.0007224081782624125
6492000000.0 0.0005153968231752515 0.000585623667575419
6493000000.0 0.0006850165082141757 0.0002653885167092085
6494000000.0 0.000728907878510654 -1.015307498164475e-05
6495000000.0 0.0006840442656539381 -0.0003220032376702875
6496000000.0 0.0003710202581714839 -0.0007329107029363513
6497000000.0 8.742397039895877e-05 -0.0007563862600363791
6498000000.0 -0.00029061437817290425 -0.0007765722693875432
6499000000.0 -0.0006233155145309865 -0.0004995368653908372
6500000000.0 -0.0007435328443534672 -6.0297679738141596e-05
6501000000.0 -0.0007519123028032482 0.0002854035992641002
6502000000.0 -0.000613281736150384 0.0005857724463567138
6503000000.0 -0.0003328672028146684 0.0007344064651988447
6504000000.0 0.00010375111014582217 0.0008742313366383314
6505000000.0 0.0004955760668963194 0.0007263984880410135
6506000000.0 0.0007647089660167694 0.00035745109198614955
6507000000.0 0.000886164722032845 -6.141472113085911e-05
6508000000.0 0.000685849052388221 -0.000516716216225177
6509000000.0 0.0004163259291090071 -0.0007399592432193458
6510000000.0 4.0378421545028687e-05 -0.0008782233926467597
6511000000.0 -0.0003974752326030284 -0.0008000973029993474
6512000000.0 -0.0006642048829235137 -0.000622393621597439
6513000000.0 -0.0008676463621668518 -0.00017318836762569845
6514000000.0 -0.0009541617473587394 0.0002724256773944944
6515000000.0 -0.000687792373355478 0.0005840391968376935
6516000000.0 -0.00025293423095718026 0.0009481857996433973
6517000000.0 0.00027706651599146426 0.0009476839913986623
6518000000.0 0.000577879894990474 0.00075971067417413
6519000000.0 0.0009773483034223318 0.00039513042429462075
6520000000.0 0.0010131042217835784 -0.00011974788503721356
6521000000.0 0.0008816288900561631 -0.0005415667546913028
6522000000.0 0.0005699372850358486 -0.0010472601279616356
6523000000.0 -3.0239185434766114e-05 -0.001125893322750926
6524000000.0 -0.0005593987298198044 -0.0008917235536500812
6525000000.0 -0.0010470552369952202 -0.0006211482686921954
6526000000.0 -0.0012139544123783708 -3.063290205318481e-05
6527000000.0 -0.0010477628093212843 0.0006065994966775179
6528000000.0 -0.0006626169779337943 0.0010348499054089189
6529000000.0 -3.1017407309263945e-05 0.0012287955032661557
6530000000.0 0.0006446847110055387 0.0011167549528181553
6531000000.0 0.0010257266694679856 0.0007282328442670405
6532000000.0 0.0011791983852162957 0.0001035318782669492
6533000000.0 0.0012096939608454704 -0.0005527539760805666
6534000000.0 0.0006891085649840534 -0.0010682456195354462
6535000000.0 4.860366607317701e-05 -0.001196082215756178
6536000000.0 -0.0005441500688903034 -0.0011254154378548265
6537000000.0 -0.0010171172907575965 -0.0007024934166111052
6538000000.0 -0.0012194501468911767 -0.00017307966481894255
6539000000.0 -0.0010718872072175145 0.00048724724911153316
6540000000.0 -0.0005903326091356575 0.0009050181834027171
6541000000.0 -0.0001434872974641621 0.0011006317799910903
6542000000.0 0.0004557396750897169 0.0010307889897376299
6543000000.0 0.000850843673106283 0.0007327806670218706
6544000000.0 0.0009948140941560268 0.000253838486969471
6545000000.0 0.0009872490772977471 -0.00033771846210584044
6546000000.0 0.0007193255587480962 -0.0006503982585854828
6547000000.0 0.00039586558705195785 -0.0009660877985879779
6548000000.0 -0.00013518784544430673 -0.00088578334543854
6549000000.0 -0.0005179062718525529 -0.00073809182504192
6550000000.0 -0.0008557502296753228 -0.00046301272232085466
6551000000.0 -0.0008361196960322559 1.3968838175060228e-05
6552000000.0 -0.0008154220413416624 0.0003998622705694288
6553000000.0 -0.0004669177869800478 0.0007936747279018164
6554000000.0 -1.3738755114900414e-05 0.0009002438746392727
6555000000.0 0.00032108507002703846 0.0008128447807393968
6556000000.0 0.0006651561707258224 0.000640064594335854
6557000000.0 0.0008402739185839891 0.00019847638031933457
6558000000.0 0.0007714507519267499 -0.00022501591593027115
6559000000.0 0.0005692056729458272 -0.0005826217238791287
6560000000.0 0.00032859487691894174 -0.0008615638362243772
6561000000.0 -0.00017171309445984662 -0.0008430432644672692
6562000000.0 -0.000521118869073689 -0.000603013439103961
6563000000.0 -0.0008183353347703815 -0.00037923321360722184
6564000000.0 -0.0008545182645320892 -3.8095553463790566e-05
6565000000.0 -0.0007146794814616442 0.00042205306817777455
6566000000.0 -0.00046705955173820257 0.0007415872532874346
6567000000.0 1.5335919670178555e-05 0.0008931343909353018
6568000000.0 0.0003514317504595965 0.0008236538851633668
6569000000.0 0.0006480410229414701 0.0005326129030436277
6570000000.0 0.0009050408843904734 0.00021958636352792382
6571000000.0 0.0007838693563826382 -0.0002544609596952796
6572000000.0 0.0005608772626146674 -0.0005934677319601178
6573000000.0 0.00029298869776539505 -0.0008112324285320938
6574000000.0 -0.00011865527631016448 -0.0008666252833791077
6575000000.0 -0.0005797597113996744 -0.000658180215395987
6576000000.0 -0.0008617871790193021 -0.0004642719286493957
6577000000.0 -0.0008265925571322441 0.0001459215272916481
6578000000.0 -0.0008498618262819946 0.0004334624973125756
6579000000.0 -0.00044206855818629265 0.0006877658888697624
6580000000.0 -7.103919779183343e-05 0.0009071510867215693
6581000000.0 0.0004826098738703877 0.0008317491738125682
6582000000.0 0.0007503300439566374 0.0006063859327696264
6583000000.0 0.000984254409559071 0.00018752635514829308
6584000000.0 0.0008324904483743012 -0.00036019107210449874
6585000000.0 0.0007160426466725767 -0.0008275576401501894
6586000000.0 0.0001813480630517006 -0.0008762179641053081
6587000000.0 -0.0002304142399225384 -0.0009916683193296194
6588000000.0 -0.0007319312426261604 -0.0007021015626378357
6589000000.0 -0.0009733629412949085 -0.00020760574261657894
6590000000.0 -0.0009411670616827905 8.313444413943216e-05
6591000000.0 -0.0007381749455817044 0.0005848146392963827
6592000000.0 -0.0003519892052281648 0.000908462330698967
6593000000.0 0.00017262480105273426 0.0009766072034835815
6594000000.0 0.0005177304265089333 0.0007739161374047399
6595000000.0 0.000911954150069505 0.0003540148609317839
6596000000.0 0.0010010210098698735 -3.644304160843603e-05
6597000000.0 0.0008017320651561022 -0.0004530479200184345
6598000000.0 0.0004888385301455855 -0.0008287734817713499
6599000000.0 5.310915639711311e-06 -0.0009082913747988641
6600000000.0 -0.00037243403494358063 -0.0008661985048092902
6601000000.0 -0.0007752813980914652 -0.000568689254578203
6602000000.0 -0.000899492297321558 -0.00010586347343632951
6603000000.0 -0.0008518159156665206 0.0003222970699425787
6604000000.0 -0.000638500670902431 0.0007203472778201103
6605000000.0 -0.00017624057363718748 0.0009201794746331871
6606000000.0 0.00016531349683646113 0.0009341080440208316
6607000000.0 0.000618722231592983 0.0005616379785351455
6608000000.0 0.0007905495003797114 0.00024947026395238936
6609000000.0 0.00085907441098243 -9.14448537514545e-05
6610000000.0 0.0007344915065914392 -0.0005785635439679027
6611000000.0 0.00043673699838109314 -0.0007535450276918709
6612000000.0 1.825304025260266e-05 -0.0008896455983631313
6613000000.0 -0.00039757127524353564 -0.0007295701652765274
6614000000.0 -0.0006558632594533265 -0.0004882832290604711
6615000000.0 -0.0009016901021823287 -4.011012424598448e-05
6616000000.0 -0.0007543364190496504 0.0002859352680388838
6617000000.0 -0.0006416013347916305 0.0006353261996991932
6618000000.0 -0.0002893144264817238 0.0009303568513132632
6619000000.0 0.0003186404355801642 0.0008856906206347048
6620000000.0 0.0005970550118945539 0.0006886061164550483
6621000000.0 0.0007540567312389612 0.00026711871032603085
6622000000.0 0.0009042348247021437 -0.00011801818618550897
6623000000.0 0.0007184845162555575 -0.0005158021813258529
6624000000.0 0.00029471408925019205 -0.0008242851472459733
6625000000.0 -5.406824857345782e-05 -0.0008716863812878728
6626000000.0 -0.0005595397669821978 -0.0007209114264696836
6627000000.0 -0.0007734430255368352 -0.0004732793604489416
6628000000.0 -0.0009317372459918261 -7.651633495697752e-05
6629000000.0 -0.0008728814427740872 0.0003664687683340162
6630000000.0 -0.0004948092973791063 0.0007520393119193614
6631000000.0 -0.000164108831086196 0.0008527511963620782
6632000000.0 0.00034703529672697186 0.0009172382997348905
6633000000.0 0.0008630851516500115 0.00060940784169361
6634000000.0 0.0009766655275598168 0.0001872036955319345
6635000000.0 0.0010050985729321837 -0.00027304416289553046
6636000000.0 0.000766243610996753 -0.0008693333365954459
6637000000.0 0.0003092364640906453 -0.0009927803184837103
6638000000.0 -0.0002730698906816542 -0.0008737976313568652
6639000000.0 -0.0006481490563601255 -0.0007243955042213202
6640000000.0 -0.0008744097431190312 -0.00034489529207348824
6641000000.0 -0.0009442091104574502 0.00015432259533554316
6642000000.0 -0.0006990113761276007 0.0006656023324467242
6643000000.0 -0.0003257258504163474 0.0009384227450937033
6644000000.0 0.00017075067444238812 0.0008666912326589227
6645000000.0 0.00047117489157244563 0.0008537750109098852
6646000000.0 0.0009146397933363914 0.00045491274795494974
6647000000.0 0.0008878385415300727 -7.383876800304279e-05
6648000000.0 0.0007452123099938035 -0.0004806422221008688
6649000000.0 0.00047967018326744437 -0.0007609215681441128
6650000000.0 5.6321994634345174e-05 -0.000873410957865417
6651000000.0 -0.00022502554929815233 -0.0007640070980414748
6652000000.0 -0.0007349058287218213 -0.0005033418419770896
6653000000.0 -0.0008294963627122343 -8.195389818865806e-05
6654000000.0 -0.0006961722392588854 0.0002931439084932208
6655000000.0 -0.000570722040720284 0.0005721361958421767
6656000000.0 -0.0001996479113586247 0.000770374434068799
6657000000.0 0.0002747118996921927 0.0007227156893350184
6658000000.0 0.0005436528008431196 0.0006202395306900144
6659000000.0 0.0006528427475132048 0.00026967693702317774
6660000000.0 0.0006735188071615994 -0.00013539700012188405
6661000000.0 0.0006967718945816159 -0.00037026434438303113
6662000000.0 0.00037801163853146136 -0.0005739592597819865
6663000000.0 9.930459054885432e-05 -0.0007812887779437006
6664000000.0 -0.0003209643764421344 -0.0007010649424046278
6665000000.0 -0.0005850646994076669 -0.00035474461037665606
6666000000.0 -0.0006869383505545557 -0.00011955643276451156
6667000000.0 -0.0006924677290953696 0.00020023403340019286
6668000000.0 -0.00048701101331971586 0.0005132632213644683
6669000000.0 -0.00032493213075213134 0.0006609216216020286
6670000000.0 0.00017018151993397623 0.0006930761155672371
6671000000.0 0.0005026643630117178 0.0005510508199222386
6672000000.0 0.0006327445153146982 0.00025574801838956773
6673000000.0 0.0006789384642615914 1.0015874067903496e-06
6674000000.0 0.0006576576852239668 -0.00027073355158790946
6675000000.0 0.00036342974635772407 -0.0005209296941757202
6676000000.0 8.643291221233085e-05 -0.0006435022223740816
6677000000.0 -0.00029735916177742183 -0.0006433632224798203
6678000000.0 -0.0005469422321766615 -0.0005587186315096915
6679000000.0 -0.0007543234969489276 -0.00027857598615810275
6680000000.0 -0.0007618184899911284 7.371379615506157e-05
6681000000.0 -0.0005944134318269789 0.00048763828817754984
6682000000.0 -0.00022670820180792361 0.0007585101411677897
6683000000.0 -6.630948337260634e-05 0.0007937162299640477
6684000000.0 0.0003038262657355517 0.0007885128143243492
6685000000.0 0.0007689964841119945 0.0004956262419000268
6686000000.0 0.0008222503238357604 6.491220119642094e-05
6687000000.0 0.000765600532758981 -0.00036847381852567196
6688000000.0 0.0006033314275555313 -0.0007253118674270809
6689000000.0 0.00012165437510702759 -0.0008887249859981239
6690000000.0 -0.00031167862471193075 -0.0007686946773901582
6691000000.0 -0.0006712382892146707 -0.0007187787559814751
6692000000.0 -0.0009439686546102166 -0.0002282013592775911
6693000000.0 -0.0010042698122560978 0.00014363561058416963
6694000000.0 -0.000684246770106256 0.0005878990632481873
6695000000.0 -0.0003944028285332024 0.0008516748202964664
6696000000.0 0.00017897375801112503 0.0010997268836945295
6697000000.0 0.0005856042844243348 0.0007746319752186537
6698000000.0 0.0009501418680883944 0.00045865389984101057
6699000000.0 0.0009844584856182337 -8.879252709448338e-05
6700000000.0 0.0008814106113277376 -0.0006880287546664476
6701000000.0 0.0005273116403259337 -0.0009437901899218559
6702000000.0 -0.00011219464795431122 -0.001017007976770401
6703000000.0 -0.0005606983322650194 -0.0008769649430178106
6704000000.0 -0.0009772732155397534 -0.0005553904920816422
6705000000.0 -0.0010724004823714495 2.937032149930019e-05
6706000000.0 -0.0010286718606948853 0.0005166574264876544
6707000000.0 -0.0006033239769749343 0.0009657496120780706
6708000000.0 -7.576750249427278e-07 0.0010687512112781405
6709000000.0 0.0005809541908092797 0.0009702440002001822
6710000000.0 0.0008439813391305506 0.0005363565287552774
6711000000.0 0.0010626139119267464 0.00010771539382403716
6712000000.0 0.0009481958695687354 -0.0004608125309459865
6713000000.0 0.0007179363165050745 -0.0008974415250122547
6714000000.0 7.348768849624321e-05 -0.0010950218420475721
6715000000.0 -0.00037120975321158767 -0.0009886767948046327
6716000000.0 -0.0008771299617365003 -0.0007282286533154547
6717000000.0 -0.0009262412204407156 -0.0002473076747264713
6718000000.0 -0.0009925207123160362 0.00028600567020475864
6719000000.0 -0.0007232357747852802 0.0008114122319966555
6720000000.0 -0.0002349356800550595 0.0009862246224656701
6721000000.0 0.0001725108886603266 0.001055471831932664
6722000000.0 0.000680327124428004 0.0008286078227683902
6723000000.0 0.0011036492651328444 0.00027534650871530175
6724000000.0 0.0010406248038634658 -6.991494592512026e-05
6725000000.0 0.0008541239658370614 -0.0006753879715688527
6726000000.0 0.0005017731455154717 -0.0008355662575922906
6727000000.0 -8.855485793901607e-05 -0.000921494560316205
6728000000.0 -0.0005309457192197442 -0.0007694982341490686
6729000000.0 -0.0009925027843564749 -0.0004312099190428853
6730000000.0 -0.0009862147271633148 9.26128268474713e-06
6731000000.0 -0.0008253943524323404 0.000538033724296838
6732000000.0 -0.0005643807235173881 0.0008686757064424455
6733000000.0 -0.00017886645218823105 0.000987125327810645
6734000000.0 0.0004673973598983139 0.000867895781993866
6735000000.0 0.0008945781155489385 0.00064779759850353
6736000000.0 0.0008965859306044877 0.00012221602082718164
6737000000.0 0.0008405494154430926 -0.000409031956223771
6738000000.0 0.0006431945948861539 -0.0007341480813920498
6739000000.0 0.00025719290715642273 -0.000935762538574636
6740000000.0 -0.0003894806432072073 -0.0008527470636181533
6741000000.0 -0.0006521715549752116 -0.000527246855199337
6742000000.0 -0.0009561143815517426 -0.00014915225619915873
6743000000.0 -0.0008564743329770863 0.00025485720834694803
6744000000.0 -0.0007394444546662271 0.0006514273700304329
6745000000.0 -0.00023713223345112056 0.0008774431189522147
6746000000.0 0.0001945715630427003 0.0008535140077583492
6747000000.0 0.0006117450539022684 0.0005836942582391202
6748000000.0 0.0007765365298837423 0.00038096008938737214
6749000000.0 0.0009000032441690564 -0.00014225549239199609
6750000000.0 0.0006026423070579767 -0.000475129607366398
6751000000.0 0.0003410534409340471 -0.0008237335132434964
6752000000.0 6.835303793195635e-06 -0.0008313488797284663
6753000000.0 -0.00037213959149084985 -0.0005897745722904801
6754000000.0 -0.0005668352823704481 -0.00033649010583758354
6755000000.0 -0.0006818560068495572 3.254259866025677e-07
6756000000.0 -0.0006561313639394939 0.0003978936292696744
6757000000.0 -0.00028444285271689296 0.00043923372868448496
6758000000.0 6.568634853465483e-05 0.000525128620211035
6759000000.0 0.00011510484910104424 0.0005918287788517773
6760000000.0 0.00046803170698694885 0.00039735931204631925
6761000000.0 0.000559610896743834 0.00016261753626167774
6762000000.0 0.0005382286617532372 -0.00011910074681509286
6763000000.0 0.00048263813368976116 -0.0004738965071737766
6764000000.0 0.0003643373493105173 -0.00040227113640867174
6765000000.0 -9.855515963863581e-05 -0.00066344253718853
6766000000.0 -0.0002886795555241406 -0.00039728375850245357
6767000000.0 -0.00047086350969038904 -0.00025217808433808386
6768000000.0 -0.00048713767318986356 -0.00011877094220835716
6769000000.0 -0.00035092554753646255 0.0001491982111474499
6770000000.0 -0.0003219516365788877 0.0004237468237988651
6771000000.0 -0.00015417196846101433 0.0004953637253493071
6772000000.0 6.230422150110826e-05 0.0004876910534221679
6773000000.0 0.0003512039256747812 0.00038873404264450073
6774000000.0 0.0004468716506380588 0.00020041948300786316
6775000000.0 0.00048689759569242597 -0.00017436701455153525
6776000000.0 0.0004153046174906194 -0.000245407922193408
6777000000.0 0.0002622295869514346 -0.0004027427057735622
6778000000.0 0.00011879260273417458 -0.0006282791728153825
6779000000.0 -0.0001992151082959026 -0.0004575669881887734
6780000000.0 -0.0004473859735298902 -0.0002713960420805961
6781000000.0 -0.0006093081901781261 -0.00023982896527741104
6782000000.0 -0.0005163534660823643 0.0001699821586953476
6783000000.0 -0.0003227090637665242 0.00036062728031538427
6784000000.0 -0.00016323236923199147 0.0006032006931491196
6785000000.0 0.00012215781316626817 0.0005764283705502748
6786000000.0 0.0003257756761740893 0.0004953875904902816
6787000000.0 0.0003675351617857814 0.000160262017743662
6788000000.0 0.0005486028385348618 0.00012243799574207515
6789000000.0 0.0003646060358732939 -0.0001326110796071589
6790000000.0 0.0003412784426473081 -0.0004300618020351976
6791000000.0 0.00011258099402766675 -0.0006548603414557874
6792000000.0 -0.00010796348942676559 -0.0005036872462369502
6793000000.0 -0.0004292820522096008 -0.0003077104047406465
6794000000.0 -0.000504405063111335 -0.00018457413534633815
6795000000.0 -0.0006662958185188472 0.00019161113596055657
6796000000.0 -0.0004749056533910334 0.0003850783105008304
6797000000.0 -0.00034286451409570873 0.0006035551778040826
6798000000.0 6.182135257404298e-05 0.0006164471851661801
6799000000.0 0.0005044991848990321 0.0007106726989150047
6800000000.0 0.0005144067108631134 0.00027497176779434085
6801000000.0 0.0005909917526878417 8.983336010714993e-05
6802000000.0 0.000646281405352056 -0.000339321733918041
6803000000.0 0.0004182825214229524 -0.0006083445041440427
6804000000.0 0.00010011512495111674 -0.0007270909263752401
6805000000.0 -0.0002770159044303 -0.0005329693667590618
6806000000.0 -0.000577121099922806 -0.00042603976908139884
6807000000.0 -0.0007372135878540576 -0.00011279895988991484
6808000000.0 -0.0008344705565832555 0.00021626036323141307
6809000000.0 -0.0005727015668526292 0.0004992486210539937
6810000000.0 -7.569703302579e-05 0.0007181860273703933
6811000000.0 0.0003426847979426384 0.0007726705516688526
6812000000.0 0.000566804432310164 0.0005307202809490263
6813000000.0 0.0007865925435908139 0.00017653373652137816
6814000000.0 0.0009224210516549647 -0.0002638566365931183
6815000000.0 0.0007158145308494568 -0.00044404587242752314
6816000000.0 0.00012502694153226912 -0.0008500365656800568
6817000000.0 -3.4573691664263606e-05 -0.000838530482724309
6818000000.0 -0.0005587745690718293 -0.00045881466940045357
6819000000.0 -0.0004732991801574826 -0.00028371490770950913
6820000000.0 -0.0008735184674151242 0.00018790707690641284
6821000000.0 -0.0006134951836429536 0.00046696513891220093
6822000000.0 -0.0003232470771763474 0.0008050542674027383
6823000000.0 -1.7720867617754266e-05 0.0007369086379185319
6824000000.0 0.0005166266928426921 0.000673972419463098
6825000000.0 0.0006692055612802505 0.0005064434953965247
6826000000.0 0.0007701711147092283 -5.598126517725177e-05
6827000000.0 0.000543457455933094 -0.00037790011265315115
6828000000.0 0.0004738668503705412 -0.0005323499790392816
6829000000.0 7.541938248323277e-05 -0.0008868656004779041
6830000000.0 -0.0001277783594559878 -0.0006282322574406862
6831000000.0 -0.0005806946428492665 -0.00045240388135425746
6832000000.0 -0.0008196322596631944 -0.0002556438557803631
6833000000.0 -0.0006870764191262424 8.984438318293542e-05
6834000000.0 -0.0006527617224492133 0.0005041899858042598
6835000000.0 -0.0002619622100610286 0.0007694338564760983
6836000000.0 9.4674585852772e-05 0.0008294032886624336
6837000000.0 0.00031675343052484095 0.000832033867482096
6838000000.0 0.0007377476431429386 0.00032462074887007475
6839000000.0 0.0008162221638485789 -0.0001703577727312222
6840000000.0 0.0006822244613431394 -0.00029720974271185696
6841000000.0 0.0005717605235986412 -0.0007342012249864638
6842000000.0 -9.282467362936586e-05 -0.0009144471841864288
6843000000.0 -0.0003853998496197164 -0.0006543443887494504
6844000000.0 -0.0005841579986736178 -0.000527548196259886
6845000000.0 -0.0010149606969207525 -2.768981721601449e-05
6846000000.0 -0.000971817527897656 0.00032400531927123666
6847000000.0 -0.0005736288148909807 0.0007305692415684462
6848000000.0 -0.00018163130152970552 0.0008931547054089606
6849000000.0 0.00029761684709228575 0.0008455574279651046
6850000000.0 0.0006940244929865003 0.0005358477937988937
6851000000.0 0.0008247230434790254 0.0002558751148171723
6852000000.0 0.0010414734715595841 -0.0003099137975368649
6853000000.0 0.0007733571110293269 -0.0008317294996231794
6854000000.0 0.00022909905237611383 -0.0010488617699593306
6855000000.0 -0.0003480851592030376 -0.0010156725766137242
6856000000.0 -0.0007798832375556231 -0.0008471658220514655
6857000000.0 -0.0009649707353673875 -0.00021995995484758168
6858000000.0 -0.0010643989080563188 0.00038050056900829077
6859000000.0 -0.0006085096974857152 0.0007478292100131512
6860000000.0 -0.00036306586116552353 0.000989822088740766
6861000000.0 0.000410081964218989 0.0009826031746342778
6862000000.0 0.0007993282051756978 0.0007985509582795203
6863000000.0 0.0008843481191433966 0.000357740034814924
6864000000.0 0.0010177047224715352 -0.0003074527776334435
6865000000.0 0.0008256509900093079 -0.0006417115218937397
6866000000.0 0.0001317752612521872 -0.0008443334372714162
6867000000.0 -0.00017834737082011998 -0.0008692429983057082
6868000000.0 -0.0006781055126339197 -0.0008138546836562455
6869000000.0 -0.0007743719033896923 -0.00021156964066904038
6870000000.0 -0.0007967348792590201 0.00013640882389154285
6871000000.0 -0.0007313245441764593 0.0005642757751047611
6872000000.0 -0.0004965933621861041 0.0007115498301573098
6873000000.0 3.010986438312102e-05 0.0009568396490067244
6874000000.0 0.00035465636756271124 0.000713961198925972
6875000000.0 0.0006340486579574645 0.0004483737866394222
6876000000.0 0.0007468912517651916 2.5487230232101865e-05
6877000000.0 0.0006051010568626225 -0.0003846327599603683
6878000000.0 0.0005613967659883201 -0.0006312942132353783
6879000000.0 0.00025996859767474234 -0.0006824584561400115
6880000000.0 -0.0001761578896548599 -0.0005976518732495606
6881000000.0 -0.000515167776029557 -0.000476012472063303
6882000000.0 -0.0005516784731298685 -0.0001928156998474151
6883000000.0 -0.0007522014202550054 7.34431596356444e-05
6884000000.0 -0.0006281670648604631 0.0003901216550730169
6885000000.0 -0.0004343695181887597 0.0005334416055120528
6886000000.0 0.00011151373473694548 0.0008158513810485601
6887000000.0 0.000352273928001523 0.0005939238471910357
6888000000.0 0.0006179511547088623 0.0003942965704482049
6889000000.0 0.0005992946680635214 0.0001894677261589095
6890000000.0 0.0006067471695132554 -0.0003632423758972436
6891000000.0 0.0005363331292755902 -0.0005747249815613031
6892000000.0 0.0001453528384445235 -0.0006918866420164704
6893000000.0 -0.00020399523782543838 -0.0006789644248783588
6894000000.0 -0.0005460490356199443 -0.0004955737385898829
6895000000.0 -0.0007888831314630806 -0.00022683122369926423
6896000000.0 -0.0008334711310453713 0.00018938115681521595
6897000000.0 -0.0006264309631660581 0.00042858824599534273
6898000000.0 -0.00030383741250261664 0.0007468792027793825
6899000000.0 1.83192369149765e-05 0.000735926500055939
6900000000.0 0.0004453230940271169 0.0006618195911869407
6901000000.0 0.0006615333841182292 0.0003800047270487994
6902000000.0 0.0008409085567109287 -7.763827852613758e-06
6903000000.0 0.0006550663965754211 -0.00045423279516398907
6904000000.0 0.0003487392095848918 -0.0005821626400575042
6905000000.0 0.00023098010569810867 -0.0007104891119524837
6906000000.0 -0.00040248542791232467 -0.0006525398348458111
6907000000.0 -0.0006625500391237438 -0.0005880669341422617
6908000000.0 -0.0007012033020146191 -7.894478039816022e-05
6909000000.0 -0.0006837643450126052 0.00037014405825175345
6910000000.0 -0.0005084499716758728 0.0007112708990462124
6911000000.0 -0.0002945651940535754 0.0008419938385486603
6912000000.0 0.0002316659811185673 0.0006767257582396269
6913000000.0 0.0004979649093002081 0.0004319680156186223
6914000000.0 0.0006852643564343452 0.00013992309686727822
6915000000.0 0.0007491271826438606 -0.00016026351659093052
6916000000.0 0.000550850061699748 -0.00033015667577274144
6917000000.0 0.00022795380209572613 -0.0007932431763038039
6918000000.0 5.554392919293605e-05 -0.0007467177929356694
6919000000.0 -0.00030164391500875354 -0.0007762113236822188
6920000000.0 -0.0005456291255541146 -0.00025521242059767246
6921000000.0 -0.0008096792735159397 0.00010708306945161894
6922000000.0 -0.0006055606645531952 0.0002510873309802264
6923000000.0 -0.00051256048027426 0.0005760898347944021
6924000000.0 -3.8034209865145385e-05 0.0005640620947815478
6925000000.0 0.00021390125039033592 0.000570714648347348
6926000000.0 0.00041238951962441206 0.0004758740251418203
6927000000.0 0.0005811044247820973 0.00019438743765931576
6928000000.0 0.0007505277753807604 -0.00010425582877360284
6929000000.0 0.0004309006326366216 -0.0004272586666047573
6930000000.0 0.0002177475835196674 -0.0005420476663857698
6931000000.0 -0.00013692803622689098 -0.0005621115560643375
6932000000.0 -0.00025202089454978704 -0.00047894413000904024
6933000000.0 -0.0006080176681280136 -0.00033894425723701715
6934000000.0 -0.0007406377699226141 1.0493774425412994e-05
6935000000.0 -0.0006034807302057743 0.00026251794770359993
6936000000.0 -0.0004939405480399728 0.0005036440561525524
6937000000.0 -8.55407997732982e-05 0.0005901643889956176
6938000000.0 0.00012930217781104147 0.0005773924640379846
6939000000.0 0.00030862027779221535 0.000513130915351212
6940000000.0 0.0006399390986189246 0.00012932528625242412
6941000000.0 0.0005831819726154208 6.406637567124562e-06
6942000000.0 0.00047445023665204644 -0.0004055554745718837
6943000000.0 0.00033591355895623565 -0.0004786832432728261
6944000000.0 9.896126721287146e-05 -0.0006821696879342198
6945000000.0 -0.00020653144747484475 -0.0005903684650547802
6946000000.0 -0.0005090986960567534 -0.00027995638083666563
6947000000.0 -0.0006588696269318461 -0.00016719412815291435
6948000000.0 -0.0007636153022758663 0.0003194576711393893
6949000000.0 -0.0005746514070779085 0.0005249471287243068
6950000000.0 -0.00025684875436127186 0.0006133075803518295
6951000000.0 6.345561268972233e-05 0.0006754547939635813
6952000000.0 0.0006027491763234138 0.0006805689190514386
6953000000.0 0.000714530295226723 0.00031297304667532444
6954000000.0 0.0007963272510096431 -9.707736171549186e-05
6955000000.0 0.0006480044685304165 -0.00045978979323990643
6956000000.0 0.00042757109622471035 -0.0008619192522019148
6957000000.0 2.257911972947113e-07 -0.0008498396491631866
6958000000.0 -0.00032406672835350037 -0.0007804221822880208
6959000000.0 -0.0007413852727040648 -0.00045411530300043523
6960000000.0 -0.0008288610843010247 2.410720753687201e-06
6961000000.0 -0.0006759352399967611 0.00044465894461609423
6962000000.0 -0.0005267171654850245 0.0007750608492642641
6963000000.0 -0.00010732509690569714 0.00092640973161906
6964000000.0 0.0003159953630529344 0.000855243531987071
6965000000.0 0.0007610202883370221 0.0004944208194501698
6966000000.0 0.0008342241635546088 0.00021661518258042634
6967000000.0 0.0008727518725208938 -0.0003342632844578475
6968000000.0 0.0006586769013665617 -0.0006889073411002755
6969000000.0 0.00023323888308368623 -0.000934031733777374
6970000000.0 -0.00026406889082863927 -0.0009297457872889936
6971000000.0 -0.0006989225512370467 -0.0006595034501515329
6972000000.0 -0.0009078144212253392 -0.00017983191355597228
6973000000.0 -0.0008525519515387714 0.0002216177381342277
6974000000.0 -0.0007136638159863651 0.0006457558483816683
6975000000.0 -0.00038027207483537495 0.000920069171115756
6976000000.0 -8.299634828290436e-06 0.0008369149290956557
6977000000.0 0.000499415269587189 0.000684870989061892
6978000000.0 0.0008933637873269618 0.0004462109936866909
6979000000.0 0.0008043904672376812 -0.0001365124189760536
6980000000.0 0.0007566801505163312 -0.0005519323167391121
6981000000.0 0.00030042973230592906 -0.0007197687518782914
6982000000.0 0.00012876284017693251 -0.0009348704479634762
6983000000.0 -0.0004071190778631717 -0.0007685046875849366
6984000000.0 -0.0006240475340746343 -0.00033107592025771737
6985000000.0 -0.0009440885041840374 -7.650251063751057e-05
6986000000.0 -0.0008308867109008133 0.0003702726971823722
6987000000.0 -0.0005402149399742484 0.0005999449640512466
6988000000.0 -0.00025869274395518005 0.0007586928550153971
6989000000.0 0.0002776599721983075 0.0007208104943856597
6990000000.0 0.0006056833663024008 0.0006329798488877714
6991000000.0 0.0007152045145630836 0.00033700422500260174
6992000000.0 0.0008598658605478704 -8.336224709637463e-05
6993000000.0 0.0006564321229234338 -0.0004287639749236405
6994000000.0 0.0003811165224760771 -0.0006364866276271641
6995000000.0 6.777119415346533e-05 -0.0007201251573860645
6996000000.0 -0.00047359196469187737 -0.0007223564316518605
6997000000.0 -0.0006932785036042333 -0.00037048349622637033
6998000000.0 -0.0007184867281466722 -0.0001257364492630586
6999000000.0 -0.0007335446425713599 0.0003606229438446462
7000000000.0 -0.00042786190169863403 0.0006986596272327006
