! Created with skrf 1.10.0 (http://scikit-rf.org).
# Hz S RI R 50.0 
!freq ReS11 ImS11
!
6000000000.0 0.0005229039234109223 0.0011956258676946163
6001000000.0 0.0009092370746657252 0.0008082544081844389
6002000000.0 0.0012209760025143623 0.00035029457649216056
6003000000.0 0.0012400380801409483 -0.00034039016463793814
6004000000.0 0.0008980156853795052 -0.0007557119824923575
6005000000.0 0.00046996353194117546 -0.0011999125126749277
6006000000.0 -0.00017509855388198048 -0.0012918233405798674
6007000000.0 -0.0007220545667223632 -0.0010977949714288116
6008000000.0 -0.001283524907194078 -0.0005165867041796446
6009000000.0 -0.0012036608532071114 9.571613190928474e-05
6010000000.0 -0.0010199976386502385 0.0005742653156630695
6011000000.0 -0.0006272562895901501 0.001021945965476334
6012000000.0 -4.7733243263792247e-05 0.0012350775068625808
6013000000.0 0.000551304139662534 0.0010687221074476838
6014000000.0 0.0010835971916094422 0.0006750287138856947
6015000000.0 0.0011123445583507419 9.74265203694813e-05
6016000000.0 0.000951874244492501 -0.00041890735155902803
6017000000.0 0.0008034835918806493 -0.000884675479028374
6018000000.0 0.00024356434005312622 -0.0010855138534680009
6019000000.0 -0.0002574215759523213 -0.0010183373233303428
6020000000.0 -0.00060574512463063 -0.0008590664365328848
6021000000.0 -0.0010263469303026795 -0.0003545438521541655
6022000000.0 -0.0010512921726331115 0.00023860072542447597
6023000000.0 -0.0008451362373307347 0.00039844305138103664
6024000000.0 -0.00033184883068315685 0.000897206598892808
6025000000.0 -7.02139368513599e-05 0.0010579208610579371
6026000000.0 0.0004886779352091253 0.0008547949255444109
6027000000.0 0.0007934400928206742 0.0006011168006807566
6028000000.0 0.0010603273985907435 0.00010454216680955142
6029000000.0 0.0009650262072682381 -0.0003390679194126278
6030000000.0 0.000633900985121727 -0.0006466545746661723
6031000000.0 0.00023981106642168015 -0.0008286997326649725
6032000000.0 -0.0001477320765843615 -0.0009055988630279899
6033000000.0 -0.0005972873768769205 -0.0006802101852372289
6034000000.0 -0.000857056409586221 -0.00027687859255820513
6035000000.0 -0.0008584115421399474 6.026741903042421e-05
6036000000.0 -0.0008763557998463511 0.0005470752948895097
6037000000.0 -0.00047042081132531166 0.0006972320843487978
6038000000.0 5.7208832004107535e-05 0.0008967638132162392
6039000000.0 0.00033176824217662215 0.0008463019621558487
6040000000.0 0.0007819677121005952 0.0005549928173422813
6041000000.0 0.0008769985288381577 0.00010708705667639151
6042000000.0 0.0008448286098428071 -0.00020394175953697413
6043000000.0 0.0006274628103710711 -0.000680889468640089
6044000000.0 0.00021136966824997216 -0.000895892851985991
6045000000.0 -4.377401637611911e-05 -0.0008357779588550329
6046000000.0 -0.0005316008464433253 -0.0007219621329568326
6047000000.0 -0.000863341789226979 -0.0004336391866672784
6048000000.0 -0.0009250168805010617 -1.7807238691602834e-05
6049000000.0 -0.0008023859118111432 0.0003263863327447325
6050000000.0 -0.0005052300984971225 0.0006926734931766987
6051000000.0 -5.623047400149517e-05 0.0008457402000203729
6052000000.0 0.00041883846279233694 0.0008640344021841884
6053000000.0 0.0005848024738952518 0.0006358211394399405
6054000000.0 0.000808653247077018 0.00018596746667753905
6055000000.0 0.0007708854391239583 -0.0002533335064072162
6056000000.0 0.0006573385326191783 -0.000531496771145612
6057000000.0 0.00048313973820768297 -0.0007794411503709853
6058000000.0 2.2272310161497444e-05 -0.0008816947811283171
6059000000.0 -0.0005143451853655279 -0.0007770201191306114
6060000000.0 -0.0007662986172363162 -0.0004338648577686399
6061000000.0 -0.0009497157298028469 -5.8474306570133194e-05
6062000000.0 -0.0009738418739289045 0.0004455419257283211
6063000000.0 -0.0005361679941415787 0.0008188601932488382
6064000000.0 -6.935543933650479e-05 0.0010588010773062706
6065000000.0 0.0003983842325396836 0.0009803007123991847
6066000000.0 0.0006675405311398208 0.0006730514578521252
6067000000.0 0.0007551188464276493 0.00029813279979862273
6068000000.0 0.0010013501159846783 -0.00010566413402557373
6069000000.0 0.0008986982866190374 -0.0005445150891318917
6070000000.0 0.00048822679673321545 -0.0009414998348802328
6071000000.0 -0.00015636654279660434 -0.0009078033035621047
6072000000.0 -0.0005946980672888458 -0.000753795902710408
6073000000.0 -0.00075279496377334 -0.00044943258399143815
6074000000.0 -0.001064426964148879 -5.685473297489807e-06
6075000000.0 -0.0008864515693858266 0.0004926290712319314
6076000000.0 -0.0005766232497990131 0.0008186540799215436
6077000000.0 -3.1461615435546264e-05 0.0011428199941292405
6078000000.0 0.00036349607398733497 0.0010602064430713654
6079000000.0 0.0007560077938251197 0.0006907060742378235
6080000000.0 0.0010855481959879398 0.00026138630346395075
6081000000.0 0.0008882934926077724 -0.0002567291085142642
6082000000.0 0.0007697700639255345 -0.0006459971773438156
6083000000.0 0.0002756085596047342 -0.0011022693943232298
6084000000.0 -0.00016530320863239467 -0.0010043068323284388
6085000000.0 -0.0006318619125522673 -0.0007445051451213658
6086000000.0 -0.0009753546910360456 -0.0005614709807559848
6087000000.0 -0.0010967571288347244 0.00011050627654185519
6088000000.0 -0.0006930938689038157 0.0006236766348592937
6089000000.0 -0.00045289876288734376 0.0008440329693257809
6090000000.0 7.160740642575547e-05 0.0011290619149804115
6091000000.0 0.0003884679754264653 0.0010689744958654046
6092000000.0 0.0008766191895119846 0.0005254789139144123
6093000000.0 0.0008623081375844777 9.487797069596127e-05
6094000000.0 0.0009762509725987911 -0.00043305911822244525
6095000000.0 0.0007171542383730412 -0.0005277008167468011
6096000000.0 0.000383872480597347 -0.0010736093390733004
6097000000.0 -0.0002282141213072464 -0.0009985081851482391
6098000000.0 -0.000551183067727834 -0.0006452779052779078
6099000000.0 -0.0006900915177538991 -0.0005563552840612829
6100000000.0 -0.0009464167524129152 0.00022250930487643927
6101000000.0 -0.0006793240900151432 0.0004121831734664738
6102000000.0 -0.0005756239988841116 0.0009408327168785036
6103000000.0 -1.6625231182842981e-06 0.0010834031272679567
6104000000.0 0.0005380550283007324 0.0008495469228364527
6105000000.0 0.0008378662751056254 0.00039525158354081213
6106000000.0 0.0009712754399515688 6.22655134066008e-05
6107000000.0 0.0009376581874676049 -0.00025498418835923076
6108000000.0 0.00046138427569530904 -0.0007879809709265828
6109000000.0 0.0002087775501422584 -0.0008688204688951373
6110000000.0 2.5869447199511342e-05 -0.0010383969638496637
6111000000.0 -0.0005535221425816417 -0.0008624849142506719
6112000000.0 -0.0007754220278002322 -0.00037508775130845606
6113000000.0 -0.001041771611198783 0.00027480380958877504
6114000000.0 -0.0008758461917750537 0.0005436892970465124
6115000000.0 -0.00028684199787676334 0.001103375805541873
6116000000.0 -0.0001751608360791579 0.0011011426104232669
6117000000.0 0.0005884425481781363 0.0008182412129826844
6118000000.0 0.000797807879280299 0.0006944101769477129
6119000000.0 0.0012533619301393628 0.00021477355039678514
6120000000.0 0.0009300249512307346 -0.0003480858576949686
6121000000.0 0.0007779514999128878 -0.0006590604316443205
6122000000.0 0.00012530555250123143 -0.001269593252800405
6123000000.0 -7.63456046115607e-05 -0.001178218168206513
6124000000.0 -0.0005195852718316019 -0.0007039184565655887
6125000000.0 -0.000855244230479002 -0.00036468161852099
6126000000.0 -0.001036207191646099 8.070703916018829e-05
6127000000.0 -0.0008005977142602205 0.0007250577327795327
6128000000.0 -0.0004396782023832202 0.0011888875160366297
6129000000.0 7.305735925910994e-05 0.0013515703612938523
6130000000.0 0.0005321693606674671 0.000807333504781127
6131000000.0 0.0008057472296059132 0.0004429072723723948
6132000000.0 0.0011953163193538785 0.00017579116683918983
6133000000.0 0.0009351155022159219 -0.000566510483622551
6134000000.0 0.0007788956863805652 -0.0008374086464755237
6135000000.0 0.00035606874735094607 -0.001228869310580194
6136000000.0 -0.0004908298142254353 -0.0009061834425665438
6137000000.0 -0.0010523471282795072 -0.0007164052804000676
6138000000.0 -0.001081231515854597 -0.0003589303232729435
6139000000.0 -0.0010585383279249072 0.00023044159752316773
6140000000.0 -0.0008480183896608651 0.0008447382715530694
6141000000.0 -0.00037755092489533126 0.001280668075196445
6142000000.0 0.00021606140944641083 0.0009812668431550264
6143000000.0 0.0007709463825449347 0.0009557920857332647
6144000000.0 0.0010831550462171435 0.0004944626125507057
6145000000.0 0.0011207713978365064 5.1990973588544875e-06
6146000000.0 0.0010178695665672421 -0.0004875066224485636
6147000000.0 0.000509927689563483 -0.0009704098338261247
6148000000.0 5.443981081043603e-06 -0.001100098597817123
6149000000.0 -0.00034274155041202903 -0.0009556124568916857
6150000000.0 -0.0010835094144567847 -0.0004928372800350189
6151000000.0 -0.0010414718417450786 -0.0002852408797480166
6152000000.0 -0.0009259108919650316 0.00030575215350836515
6153000000.0 -0.0008153142989613116 0.0006932549877092242
6154000000.0 -0.0002019426174229011 0.0012436993420124054
6155000000.0 0.00030048168264329433 0.0008789427229203284
6156000000.0 0.0007700063870288432 0.0009245697874575853
6157000000.0 0.0008869118173606694 0.0002727709652390331
6158000000.0 0.0010608143638819456 -0.00023168523330241442
6159000000.0 0.0008732730057090521 -0.0007927459664642811
6160000000.0 0.0004607858427334577 -0.0007546326378360391
6161000000.0 -2.0454453988349997e-05 -0.0008494802750647068
6162000000.0 -0.0004792868276126683 -0.0008055234211497009
6163000000.0 -0.0008358616032637656 -0.000713377958163619
6164000000.0 -0.0008175747352652252 3.810567068285309e-05
6165000000.0 -0.0008206571801565588 0.00036050452035851777
6166000000.0 -0.0006911837845109403 0.0009437405387870967
6167000000.0 -0.00036626216024160385 0.0009124418720602989
6168000000.0 0.0002677704906091094 0.0010297431144863367
6169000000.0 0.0007427888922393322 0.0006598703330382705
6170000000.0 0.0009905524784699082 0.00032355819712392986
6171000000.0 0.001069199643097818 -0.00026768213137984276
6172000000.0 0.0009198056650348008 -0.000687405641656369
6173000000.0 0.00041848953696899116 -0.0009768669260665774
6174000000.0 4.210821134620346e-05 -0.0010437816381454468
6175000000.0 -0.00047528112190775573 -0.0010327523341402411
6176000000.0 -0.00080316566163674 -0.000745836237911135
6177000000.0 -0.0009974022395908833 -3.13233322231099e-05
6178000000.0 -0.0008497398812323809 0.00035272896639071405
6179000000.0 -0.0006106105865910649 0.0008963079890236259
6180000000.0 -0.00018233529408462346 0.0011102405842393637
6181000000.0 0.00028968468541279435 0.0007484372472390532
6182000000.0 0.0005920527619309723 0.000867040129378438
6183000000.0 0.0010265392484143376 0.0004035786259919405
6184000000.0 0.0009050169610418379 -1.9493854779284447e-05
6185000000.0 0.0007914679008536041 -0.00043900107266381383
6186000000.0 0.000523741589859128 -0.0009316783980466425
6187000000.0 5.861246245331131e-05 -0.0010647043818607926
6188000000.0 -0.00040525392978452146 -0.0008679319871589541
6189000000.0 -0.0008589529315941036 -0.0007727235788479447
6190000000.0 -0.0011069785105064511 -0.00018517790886107832
6191000000.0 -0.0010880952468141913 0.000431323453085497
6192000000.0 -0.000611801806371659 0.0007320773438550532
6193000000.0 -0.00016717221296858042 0.0010911199497058988
6194000000.0 0.00034028582740575075 0.00105538300704211
6195000000.0 0.0006128122331574559 0.0009062413009814918
6196000000.0 0.0009227418922819197 0.0003474985423963517
6197000000.0 0.0010749534703791142 -0.00016507820691913366
6198000000.0 0.0009127012453973293 -0.0005339261842891574
6199000000.0 0.0004992539761587977 -0.0010373045224696398
6200000000.0 -0.00023347852402366698 -0.0011351106222718954
6201000000.0 -0.0005912110209465027 -0.0010043340735137463
6202000000.0 -0.0010529340943321586 -0.0006560509791597724
6203000000.0 -0.0010842920746654272 3.962286427849904e-05
6204000000.0 -0.000907688750885427 0.0006263696704991162
6205000000.0 -0.0006493126857094467 0.0008141959551721811
6206000000.0 -0.00010215346264885738 0.0012258555507287383
6207000000.0 0.0003808210603892803 0.0011298820609226823
6208000000.0 0.0008961122948676348 0.0006557333981618285
6209000000.0 0.001039787195622921 0.00033943078597076237
6210000000.0 0.0011298989411443472 -0.00032335284049622715
6211000000.0 0.0008600643486715853 -0.0007263810839504004
6212000000.0 0.0002740586642175913 -0.0012213970767334104
6213000000.0 -0.0001753803517203778 -0.001107766991481185
6214000000.0 -0.0006882571033202112 -0.0008720576297491789
6215000000.0 -0.001157410442829132 -0.0003882325836457312
6216000000.0 -0.001106236595660448 1.3822023902321234e-05
6217000000.0 -0.0009413457592017949 0.0005052958149462938
6218000000.0 -0.0005897937808185816 0.0009842794388532639
6219000000.0 -1.682188781160221e-06 0.0013190265744924545
6220000000.0 0.0006255298503674567 0.0010356216225773096
6221000000.0 0.0009165307274088264 0.0007152509642764926
6222000000.0 0.001312288106419146 0.00018601035117171705
6223000000.0 0.0011196209816262126 -0.0003357927780598402
6224000000.0 0.0008534247754141688 -0.00072198681300506
6225000000.0 0.00012067751958966255 -0.0012478427961468697
6226000000.0 -0.0001364056224701926 -0.001031131367199123
6227000000.0 -0.0006900021689943969 -0.0006815693341195583
6228000000.0 -0.0009395378874614835 -0.00031150394352152944
6229000000.0 -0.00108794413972646 0.00019610466551966965
6230000000.0 -0.0009937913855537772 0.0004952847957611084
6231000000.0 -0.0005047295126132667 0.0008822748786769807
6232000000.0 0.00012001320283161476 0.0009002213482744992
6233000000.0 0.0005747742252424359 0.0009653810411691666
6234000000.0 0.00099709234200418 0.0005679085152223706
6235000000.0 0.0011008515721186996 7.373942207777873e-05
6236000000.0 0.0010065550450235605 -0.0004568252188619226
6237000000.0 0.0006035731639713049 -0.0009233078453689814
6238000000.0 8.813701424514875e-05 -0.0010525067336857319
6239000000.0 -0.0004741098964586854 -0.0009767378214746714
6240000000.0 -0.0007761504384689033 -0.0006914553232491016
6241000000.0 -0.0009687382844276726 -0.0004423821228556335
6242000000.0 -0.0011100411647930741 0.00018291898595634848
6243000000.0 -0.0009718240471556783 0.000655208365060389
6244000000.0 -0.00036644923966377974 0.0009050145745277405
6245000000.0 0.00014825654216110706 0.001017153263092041
6246000000.0 0.0004885024391114712 0.0007221641135402024
6247000000.0 0.0008617534767836332 0.0006533564883284271
6248000000.0 0.000815879728179425 0.0001208301619044505
6249000000.0 0.0008355544996447861 -0.00042225088691338897
6250000000.0 0.0006065345369279385 -0.0008323454530909657
6251000000.0 0.00018897908739745617 -0.0008262723567895591
6252000000.0 -0.0003516108845360577 -0.0007493768353015184
6253000000.0 -0.0006617258186452091 -0.000634644937235862
6254000000.0 -0.0009576498996466398 -0.0003594251465983689
6255000000.0 -0.0010070782154798508 0.00015621513011865318
6256000000.0 -0.0006874351529404521 0.0005368542624637485
6257000000.0 -0.0005100315902382135 0.000700142583809793
6258000000.0 8.252223051385954e-05 0.000764976313803345
6259000000.0 0.0003109077224507928 0.0008431752794422209
6260000000.0 0.0008272443665191531 0.0004930075374431908
6261000000.0 0.0007964004762470722 -4.069040733156726e-05
6262000000.0 0.0008510368061251938 -0.000251763965934515
6263000000.0 0.0004865465161856264 -0.0006898926221765578
6264000000.0 0.000242745183641091 -0.0008305716328322887
6265000000.0 -0.00027693581068888307 -0.0008977101533673704
6266000000.0 -0.0005858346121385694 -0.0005969830672256649
6267000000.0 -0.0007730206707492471 -0.00025277340319007635
6268000000.0 -0.0008118225377984345 8.614857506472617e-05
6269000000.0 -0.0005746149108745158 0.0005477324011735618
6270000000.0 -0.00037914441782049835 0.0006832458893768489
6271000000.0 -4.3475502025103197e-05 0.0007608516025356948
6272000000.0 0.0003717722720466554 0.0009174257866106927
6273000000.0 0.0007119805668480694 0.0006656540790572762
6274000000.0 0.0007968160789459944 0.00018674961756914854
6275000000.0 0.0009245880064554513 -0.00019306258764117956
6276000000.0 0.0007106239208951592 -0.0005456453072838485
6277000000.0 0.000313199358060956 -0.0009196684695780277
6278000000.0 -0.00012112901458749548 -0.0009626078535802662
6279000000.0 -0.0006108545348979533 -0.000810066529083997
6280000000.0 -0.0008921833359636366 -0.00042182652396149933
6281000000.0 -0.0009172334684990346 -1.6527066691196524e-05
6282000000.0 -0.0007882452919147909 0.00039283459773287177
6283000000.0 -0.0006833769148215652 0.0007914591697044671
6284000000.0 -0.00020599646086338907 0.0008408456924371421
6285000000.0 0.00020399071217980236 0.0008450729656033218
6286000000.0 0.0005734178703278303 0.0006749004242010415
6287000000.0 0.0007725544273853302 0.00032494301558472216
6288000000.0 0.0008768523694016039 -0.00013483918155543506
6289000000.0 0.0007064083474688232 -0.0005890379543416202
6290000000.0 0.00040149191045202315 -0.0008717344026081264
6291000000.0 8.89061175257666e-06 -0.0010151019087061286
6292000000.0 -0.0005132433725520968 -0.0008748448453843594
6293000000.0 -0.0009386299643665552 -0.0005042394623160362
6294000000.0 -0.0011044701095670462 -0.00020014031906612217
6295000000.0 -0.001049696933478117 0.00033418473321944475
6296000000.0 -0.0004964105319231749 0.0007890267297625542
6297000000.0 -0.00015317255747504532 0.001011607120744884
6298000000.0 0.00030576111748814583 0.0009731038589961827
6299000000.0 0.0008270008838735521 0.000868876522872597
6300000000.0 0.001045837881974876 0.00035158786340616643
6301000000.0 0.0013130244333297014 -0.00019585384870879352
6302000000.0 0.0008632482495158911 -0.000709373562131077
6303000000.0 0.0006439256248995662 -0.0010782518656924367
6304000000.0 8.900844841264188e-05 -0.0011866955319419503
6305000000.0 -0.0007141936221159995 -0.0011750587727874517
6306000000.0 -0.0010147934081032872 -0.0006470046937465668
6307000000.0 -0.0012996277073398232 -0.00010441041376907378
6308000000.0 -0.0012846979079768062 0.0005380219663493335
6309000000.0 -0.000841128989122808 0.001091508660465479
6310000000.0 -0.0001291905646212399 0.0012581602204591036
6311000000.0 0.0005242135375738144 0.0013170195743441582
6312000000.0 0.0009763830457814038 0.0007965961121954024
6313000000.0 0.0014819807838648558 0.00021737128554377705
6314000000.0 0.0013894354924559593 -0.00041140709072351456
6315000000.0 0.00095893390243873 -0.0010721082799136639
6316000000.0 0.00034262091503478587 -0.0013915684539824724
6317000000.0 -0.0004168107989244163 -0.0014064585557207465
6318000000.0 -0.0010789086809381843 -0.0010564086260274053
6319000000.0 -0.0012280418304726481 -0.0003971134137827903
6320000000.0 -0.0013113281456753612 0.00034660028177313507
6321000000.0 -0.0009654173045419157 0.0008521796553395689
6322000000.0 -0.0002650969254318625 0.0012934227706864476
6323000000.0 0.0002593776735011488 0.0014065818395465612
6324000000.0 0.0008217028807848692 0.0010501883225515485
6325000000.0 0.001223224913701415 0.000559505948331207
6326000000.0 0.001344620599411428 -2.3452943423762918e-05
6327000000.0 0.0010754732647910714 -0.00061443803133443
6328000000.0 0.0006376093369908631 -0.0011003543622791767
6329000000.0 3.634214954217896e-05 -0.0013741487637162209
6330000000.0 -0.0005747073446400464 -0.0012095662532374263
6331000000.0 -0.0010116748744621873 -0.0006195333553478122
6332000000.0 -0.0012407826725393534 -0.00020664215844590217
6333000000.0 -0.0010632050689309835 0.0005311619606800377
6334000000.0 -0.0007706144824624062 0.0010300272842869163
6335000000.0 -0.00023643815075047314 0.0012670221040025353
6336000000.0 0.00024376453075092286 0.001140923472121358
6337000000.0 0.0007034419104456902 0.0007660022238269448
6338000000.0 0.0011845942353829741 0.0004086239787284285
6339000000.0 0.0009875661926344037 -0.00025432996335439384
6340000000.0 0.0008254015701822937 -0.0006550925318151712
6341000000.0 0.00045126857003197074 -0.0009565263753756881
6342000000.0 -0.00011728546087397262 -0.0011074726935476065
6343000000.0 -0.0005487159360200167 -0.0009305438725277781
6344000000.0 -0.0009305424173362553 -0.0005743371439166367
6345000000.0 -0.0009957327274605632 -5.153613165020943e-05
6346000000.0 -0.0009811135241761804 0.0004077391931787133
6347000000.0 -0.0007311200606636703 0.000790583377238363
6348000000.0 -0.00030175026040524244 0.0010527929989621043
6349000000.0 0.0003407225594855845 0.0010026333620771766
6350000000.0 0.000788568111602217 0.0008132908842526376
6351000000.0 0.001055032596923411 0.0003508069785311818
6352000000.0 0.0010811990359798074 -0.0001972863101400435
6353000000.0 0.0007802281761541963 -0.0006858545821160078
6354000000.0 0.0004411629925016314 -0.000971970206592232
6355000000.0 2.389926157775335e-05 -0.001098069129511714
6356000000.0 -0.00048514228546991944 -0.0008709288667887449
6357000000.0 -0.0007569267763756216 -0.0005272512789815664
6358000000.0 -0.001049779006280005 -0.00014049092715140432
6359000000.0 -0.0009770512115210295 0.0003600860945880413
6360000000.0 -0.0006774308858439326 0.0007640929543413222
6361000000.0 -0.00013914683950133622 0.000991988112218678
6362000000.0 0.00026320863980799913 0.0009530095267109573
6363000000.0 0.0007524871616624296 0.000746636709664017
6364000000.0 0.0009254864417016506 0.00032624471350573003
6365000000.0 0.000994961941614747 -0.0001169918614323251
6366000000.0 0.0007579679950140417 -0.0006181721109896898
6367000000.0 0.00045759399654343724 -0.0008366999099962413
6368000000.0 -7.165659917518497e-05 -0.001025803154334426
6369000000.0 -0.00048473887727595866 -0.000854039506521076
6370000000.0 -0.0007905325037427247 -0.0005312759894877672
6371000000.0 -0.0009344348800368607 -0.00011184631148353219
6372000000.0 -0.0009102403419092298 0.0003677272761706263
6373000000.0 -0.0005867884610779583 0.0008128181216306984
6374000000.0 -0.00021382217528298497 0.0010219844989478588
6375000000.0 0.00033576186979189515 0.0009746434516273439
6376000000.0 0.0006824279553256929 0.0006448147469200194
6377000000.0 0.0008914241916500032 0.0002957300457637757
6378000000.0 0.001013776520267129 -8.984899614006281e-05
6379000000.0 0.000880315899848938 -0.0005865578423254192
6380000000.0 0.00047074907342903316 -0.0008716211887076497
6381000000.0 2.0298032268328825e-06 -0.0009252814343199134
6382000000.0 -0.0004915473982691765 -0.0009112783009186387
6383000000.0 -0.0009288804139941931 -0.0005503848660737276
6384000000.0 -0.0009763052803464234 -6.445744656957686e-05
6385000000.0 -0.000905524124391377 0.0003494601114653051
6386000000.0 -0.0005628553335554898 0.0007645542500540614
6387000000.0 -0.000224867180804722 0.000968342472333461
6388000000.0 0.0002665708016138524 0.0010596998035907745
6389000000.0 0.0007170775788836181 0.0006813512882217765
6390000000.0 0.0009792966302484274 0.00039464174187742174
6391000000.0 0.0010255343513563275 -0.00015772131155245006
6392000000.0 0.0007641479023732245 -0.0006522735930047929
6393000000.0 0.000524886476341635 -0.0009132511913776398
6394000000.0 -6.61738304188475e-05 -0.0009495800477452576
6395000000.0 -0.0005602043238468468 -0.0008998336852528155
6396000000.0 -0.0008798716007731855 -0.0005409465520642698
6397000000.0 -0.0010220693657174706 -3.224692773073912e-05
6398000000.0 -0.0009237949270755053 0.0003780648112297058
6399000000.0 -0.000709034560713917 0.0008138974662870169
6400000000.0 -8.920958498492837e-05 0.001066758530214429
6401000000.0 0.00038207133184187114 0.0010569078149273992
6402000000.0 0.0007727070478722453 0.0007603766862303019
6403000000.0 0.0009914778638631105 0.0002911682240664959
6404000000.0 0.0011750418925657868 -0.00021906246547587216
6405000000.0 0.0009230111027136445 -0.0007059566560201347
6406000000.0 0.00039298503543250263 -0.0009903517784550786
6407000000.0 -0.0001717784471111372 -0.0011128387413918972
6408000000.0 -0.0006135896546766162 -0.0009430155623704195
6409000000.0 -0.0010570019949227571 -0.00042988586938008666
6410000000.0 -0.001149144023656845 6.200121424626559e-05
6411000000.0 -0.0010797843569889665 0.0006571071571670473
6412000000.0 -0.0006987787201069295 0.0010303690796718001
6413000000.0 -5.7467168517177925e-05 0.0012561376206576824
6414000000.0 0.0006033880636096001 0.0010528800776228309
6415000000.0 0.0009367564925923944 0.0006824884912930429
6416000000.0 0.0012094093253836036 8.773970330366865e-05
6417000000.0 0.0011248420923948288 -0.0005644542980007827
6418000000.0 0.0007309703505598009 -0.0010158986551687121
6419000000.0 0.00015778117813169956 -0.001198277808725834
6420000000.0 -0.00043255838681943715 -0.001116747036576271
6421000000.0 -0.000831883167847991 -0.0007851654663681984
6422000000.0 -0.0010620170505717397 -0.0001956220221472904
6423000000.0 -0.0010778148425742984 0.0004135496274102479
6424000000.0 -0.0007920407806523144 0.0007946670521050692
6425000000.0 -0.0002419401571387425 0.0009455325780436397
6426000000.0 0.000226362026296556 0.0010213463101536036
6427000000.0 0.0007647702586837113 0.0008510744664818048
6428000000.0 0.0009291485766880214 0.00029144500149413943
6429000000.0 0.0010149461450055242 -0.00017693611152935773
6430000000.0 0.0008100185659714043 -0.0005864984123036265
6431000000.0 0.000394465314457193 -0.00092313316417858
6432000000.0 -3.8915546610951424e-05 -0.0009693191386759281
6433000000.0 -0.0004612932971213013 -0.0007398169836960733
6434000000.0 -0.0008228810620494187 -0.00046595846652053297
6435000000.0 -0.0009790421463549137 -3.623653174145147e-05
6436000000.0 -0.000806425407063216 0.0003292520996183157
6437000000.0 -0.0005544126615859568 0.0006635307800024748
6438000000.0 -0.00010159095108974725 0.0009012216469272971
6439000000.0 0.0002672227565199137 0.0007908210391178727
6440000000.0 0.0005811196169815958 0.0005988608463667333
6441000000.0 0.0008029297459870577 0.0002337469777557999
6442000000.0 0.0008179555297829211 -0.00011052336049033329
6443000000.0 0.000630296126473695 -0.0005117293330840766
6444000000.0 0.0003180830681230873 -0.0007313857204280794
6445000000.0 -5.0362439651507884e-05 -0.000834171602036804
6446000000.0 -0.00039806231507100165 -0.0007912217988632619
6447000000.0 -0.0006853090017102659 -0.00037220021476969123
6448000000.0 -0.0008053250494413078 -2.9564018404926173e-05
6449000000.0 -0.0007639321847818792 0.0003056545101571828
6450000000.0 -0.0005082160932943225 0.000592285767197609
6451000000.0 -0.00011374303721822798 0.0006847594049759209
6452000000.0 0.00020615776884369552 0.0007161784451454878
6453000000.0 0.000503049697726965 0.000565497437492013
6454000000.0 0.0007006214000284672 0.00017264923371840268
6455000000.0 0.000687435211148113 -7.762314635328948e-05
6456000000.0 0.0005517891841009259 -0.0005008209845982492
6457000000.0 0.0002749459526967257 -0.0006583058275282383
6458000000.0 -5.891406544833444e-05 -0.0007023164653219283
6459000000.0 -0.0002839054213836789 -0.0006785555742681026
6460000000.0 -0.0005282923229970038 -0.0004342653846833855
6461000000.0 -0.0006599769694730639 -0.00012770025932695717
6462000000.0 -0.0006825493765063584 0.00024584511993452907
6463000000.0 -0.00048129455535672605 0.000492178660351783
6464000000.0 -0.00018027531041298062 0.0006535469437949359
6465000000.0 0.0001391527766827494 0.000726788304746151
6466000000.0 0.00044948808499611914 0.0005387422279454768
6467000000.0 0.0006533939740620553 0.00022623343102168292
6468000000.0 0.0006375141092576087 -0.00014485859719570726
6469000000.0 0.0006020113360136747 -0.0003416677354834974
6470000000.0 0.00030717579647898674 -0.0005727882962673903
6471000000.0 0.00012021422298857942 -0.0006948139634914696
6472000000.0 -0.00030361494282260537 -0.0007516197510994971
6473000000.0 -0.000651883368846029 -0.0004902253858745098
6474000000.0 -0.000705672602634877 -0.00014732524869032204
6475000000.0 -0.0006701573147438467 0.00021633095457218587
6476000000.0 -0.0005276781739667058 0.0004576516803354025
6477000000.0 -0.0002070068585453555 0.0006977665470913053
6478000000.0 7.127363642212003e-05 0.0007545540574938059
6479000000.0 0.0004973680479452014 0.0006049764924682677
6480000000.0 0.0006031151278875768 0.00032761035254225135
6481000000.0 0.0007410990074276924 -8.31565739645157e-06
6482000000.0 0.0006604160880669951 -0.00040787793113850057
6483000000.0 0.00040134310256689787 -0.0007041770732030272
6484000000.0 0.0001240245474036783 -0.000759113347157836
6485000000.0 -0.00035194342490285635 -0.0006944956257939339
6486000000.0 -0.0005411292659118772 -0.00047301730955950916
6487000000.0 -0.0007065620156936347 -0.00013226852752268314
6488000000.0 -0.0006231000879779458 0.00022207314032129943
6489000000.0 -0.0005083971191197634 0.0005726053495891392
6490000000.0 -0.00022845245257485658 0.0007473971345461905
6491000000.0 0.00011376666952855885 0.0007625665166415274
6492000000.0 0.0003971917321905494 0.0006023767055012286
6493000000.0 0.0007526593399234116 0.00027807787409983575
6494000000.0 0.0006925566704012454 2.2821493985247798e-05
6495000000.0 0.0006616275059059262 -0.000377932155970484
6496000000.0 0.00040565591189078987 -0.0005498463287949562
6497000000.0 0.00013742483861278743 -0.0007469867705367506
6498000000.0 -0.00028247677255421877 -0.0006479716976173222
6499000000.0 -0.0005445380811579525 -0.00048644805792719126
6500000000.0 -0.0007858044118620455 -9.857894474407658e-05
6501000000.0 -0.0007268369663506746 0.0002114812668878585
6502000000.0 -0.000554469705093652 0.0005362286465242505
6503000000.0 -0.0002669666428118944 0.0007658505346626043
6504000000.0 5.6552886235294864e-05 0.0008059055544435978
6505000000.0 0.0005199366714805365 0.0005971858045086265
6506000000.0 0.0007506739930249751 0.00038697459967806935
6507000000.0 0.000909789465367794 2.6322259145672433e-05
6508000000.0 0.0007175721111707389 -0.00046643265523016453
6509000000.0 0.00046362742432393134 -0.000680077588185668
6510000000.0 7.102972449501976e-05 -0.000879422586876899
6511000000.0 -0.00031673884950578213 -0.0007687480538152158
6512000000.0 -0.0007560232770629227 -0.0005434348131529987
6513000000.0 -0.0009221426444128156 -0.0001087213313439861
6514000000.0 -0.0008578766137361526 0.00028925028163939714
6515000000.0 -0.0007610419997945428 0.0005766790709458292
6516000000.0 -0.00032150643528439105 0.0009478406282141805
6517000000.0 0.00013307196786627173 0.0008564821328036487
6518000000.0 0.0005932883941568434 0.0008639770676381886
6519000000.0 0.0008304851944558322 0.00040133987204171717
6520000000.0 0.0009315799688920379 6.420742010959657e-06
6521000000.0 0.0008771101711317897 -0.0005901802214793861
6522000000.0 0.0005025005084462464 -0.0009428975754417479
6523000000.0 -4.2887357267318293e-05 -0.001062749302946031
6524000000.0 -0.0006002230220474303 -0.000937827629968524
6525000000.0 -0.0010109292343258858 -0.0006408934132196009
6526000000.0 -0.0011216687271371484 -3.0124687327770516e-05
6527000000.0 -0.001103541231714189 0.0005514510557986796
6528000000.0 -0.0007253866642713547 0.0009998994646593928
6529000000.0 -2.6725116185843945e-05 0.001185184228233993
6530000000.0 0.0004895657766610384 0.0010753729147836566
6531000000.0 0.0010611870093271136 0.0007076235488057137
6532000000.0 0.0012800156837329268 0.00010053024016087875
6533000000.0 0.0011102095013484359 -0.0005845960695296526
6534000000.0 0.0007457310566678643 -0.0010397311998531222
6535000000.0 0.00010649322939570993 -0.0011782536748796701
6536000000.0 -0.0005579213611781597 -0.0011684830533340573
6537000000.0 -0.0009553204872645438 -0.000701331184245646
6538000000.0 -0.0012123276246711612 -0.00017562662833370268
6539000000.0 -0.0010831685503944755 0.00048143649473786354
6540000000.0 -0.0006917842547409236 0.0009085387573577464
6541000000.0 -0.00015444144082721323 0.001158717554062605
6542000000.0 0.0003370207268744707 0.001103153103031218
6543000000.0 0.0007969391881488264 0.0006748217856511474
6544000000.0 0.0010886259842664003 0.00021063863823655993
6545000000.0 0.000935891002882272 -0.00027864097501151264
6546000000.0 0.0007654442451894283 -0.0007407364319078624
6547000000.0 0.00029789438121952116 -0.0009514123084954917
6548000000.0 -0.0002057226374745369 -0.0009877807460725307
6549000000.0 -0.00048821402015164495 -0.000785752956289798
6550000000.0 -0.00092532072449103 -0.0004627947637345642
6551000000.0 -0.0009761592373251915 3.824515442829579e-05
6552000000.0 -0.0008666369249112904 0.0003972552658524364
6553000000.0 -0.00044596518273465335 0.0007305655744858086
6554000000.0 -7.962714153109118e-05 0.0009112280094996095
6555000000.0 0.00033152426476590335 0.0009334611240774393
6556000000.0 0.0006369670736603439 0.0006264625117182732
6557000000.0 0.0008148312917910516 7.598349475301802e-05
6558000000.0 0.0008690721006132662 -0.00022105133393779397
6559000000.0 0.0006347441230900586 -0.0005787982372567058
6560000000.0 0.0002861039829440415 -0.0008487601298838854
6561000000.0 -0.00018587005615700036 -0.0008350284188054502
6562000000.0 -0.00045368034625425935 -0.0008089244947768748
6563000000.0 -0.0007676386157982051 -0.0003451999509707093
6564000000.0 -0.0008411575690843165 4.866075323661789e-05
6565000000.0 -0.0007352281245402992 0.0004789980303030461
6566000000.0 -0.0004860510234721005 0.0006805812008678913
6567000000.0 -0.00012355197395663708 0.0008895331993699074
6568000000.0 0.0003460987354628742 0.0006754598580300808
6569000000.0 0.0006380871636793017 0.0005231532850302756
6570000000.0 0.000846833165269345 0.0001504320534877479
6571000000.0 0.0009008683264255524 -0.00023532808700110763
6572000000.0 0.0005666208453476429 -0.0005350539577193558
6573000000.0 0.0003204902168363333 -0.0008351838332600892
6574000000.0 -0.0002048090536845848 -0.000903121312148869
6575000000.0 -0.0006729300948791206 -0.0007664556615054607
6576000000.0 -0.0008085538283921778 -0.0004032504220958799
6577000000.0 -0.0008018869557417929 2.5592660676920786e-05
6578000000.0 -0.0008375175530090928 0.0004290076030883938
6579000000.0 -0.0004210187471471727 0.0007776535348966718
6580000000.0 -2.2455694761447376e-06 0.0008913553901948035
6581000000.0 0.0002798499772325158 0.0007894020527601242
6582000000.0 0.0007044979720376432 0.0005974478553980589
6583000000.0 0.0009134497959166765 0.00024108384968712926
6584000000.0 0.0009097445872612298 -0.000252780708251521
6585000000.0 0.0007024219376035035 -0.0006639906205236912
6586000000.0 0.00036079916753806174 -0.0008958104299381375
6587000000.0 -0.00024791702162474394 -0.0009531154064461589
6588000000.0 -0.0006075650453567505 -0.0006678192294202745
6589000000.0 -0.0009578521130606532 -0.0002535581588745117
6590000000.0 -0.0008822903037071228 0.0002113296213792637
6591000000.0 -0.0007690447382628918 0.0006629273411817849
6592000000.0 -0.00037686730502173305 0.0009649961139075458
6593000000.0 0.00016095198225229979 0.0009653808083385229
6594000000.0 0.0005664427299052477 0.0008081823471002281
6595000000.0 0.0009622154757380486 0.0003838694537989795
6596000000.0 0.0010272476356476545 -7.453391299350187e-05
6597000000.0 0.0008494543144479394 -0.0004177610680926591
6598000000.0 0.0004635737568605691 -0.0007885955274105072
6599000000.0 0.00011417281348258257 -0.0008909176103770733
6600000000.0 -0.00040968964458443224 -0.0008222897886298597
6601000000.0 -0.0008154095849022269 -0.0004907991387881339
6602000000.0 -0.0008514352375641465 -8.34670354379341e-05
6603000000.0 -0.0008109567570500076 0.0002264863287564367
6604000000.0 -0.0005841601523570716 0.0005836097407154739
6605000000.0 -0.00018527951033320278 0.0009462661691941321
6606000000.0 0.00022635358618572354 0.0008613044046796858
6607000000.0 0.0006467727362178266 0.0006137226009741426
6608000000.0 0.0008430805173702538 0.00036377113428898156
6609000000.0 0.0008009346784092486 -8.918085222830996e-05
6610000000.0 0.0007388367084786296 -0.0005069027538411319
6611000000.0 0.0003636977926362306 -0.0007096723420545459
6612000000.0 0.00010771877714432776 -0.0008740860503166914
6613000000.0 -0.0003693284234032035 -0.000831957149785012
6614000000.0 -0.0007490706047974527 -0.00042099662823602557
6615000000.0 -0.0009227244299836457 -0.00010892513819271699
6616000000.0 -0.0007860191981308162 0.00021410455519799143
6617000000.0 -0.0006158711039461195 0.0007234912482090294
6618000000.0 -0.00022013316629454494 0.0008083396242000163
6619000000.0 0.00012904593313578516 0.0009163651848211884
6620000000.0 0.0006734440685249865 0.0006746063008904457
6621000000.0 0.0007506672409363091 0.00027890974888578057
6622000000.0 0.000906690489500761 -0.00012604595394805074
6623000000.0 0.0007148879813030362 -0.0004164091369602829
6624000000.0 0.00045926403254270554 -0.0008986752945929766
6625000000.0 6.4128930716833565e-06 -0.0008910661563277245
6626000000.0 -0.0005093629588373005 -0.0008242243202403188
6627000000.0 -0.0008999522542580962 -0.0005292037967592478
6628000000.0 -0.0009265800472348928 -0.00010948033013846725
6629000000.0 -0.0008041972760111094 0.00041040408541448414
6630000000.0 -0.0005469247116707265 0.0008400582592003047
6631000000.0 -0.00022311799693852663 0.001017364556901157
6632000000.0 0.0004161431279499084 0.0009408763726241887
6633000000.0 0.0008174740360118449 0.0007099079084582627
6634000000.0 0.0009423725423403084 0.0002630799717735499
6635000000.0 0.0008971855277195573 -0.00021710155124310404
6636000000.0 0.0007091663428582251 -0.0007049436098895967
6637000000.0 0.0003033197426702827 -0.0008862726390361786
6638000000.0 -0.00018294359324499965 -0.0009126665536314249
6639000000.0 -0.0006018682615831494 -0.0006816920358687639
6640000000.0 -0.0009648107225075364 -0.00033497874392196536
6641000000.0 -0.0010180602548643947 0.00022640061797574162
6642000000.0 -0.0007227850146591663 0.0006615638849325478
6643000000.0 -0.000437970767961815 0.0009615674498490989
6644000000.0 0.0001208614485221915 0.0009459704742766917
6645000000.0 0.000450095598353073 0.0008079084800556302
6646000000.0 0.0008123114821501076 0.0004058144404552877
6647000000.0 0.0008826939738355577 -0.00011199512664461508
6648000000.0 0.00086972612189129 -0.000507967546582222
6649000000.0 0.0005190938827581704 -0.000722696422599256
6650000000.0 8.04711744422093e-05 -0.0008647538488730788
6651000000.0 -0.0003592844877857715 -0.0008592811645939946
6652000000.0 -0.0007903712103143334 -0.0005848120781593025
6653000000.0 -0.0007929799030534923 -0.00013912047143094242
6654000000.0 -0.0008208274957723916 0.00017000273510348052
6655000000.0 -0.0006407932960428298 0.0005417414358817041
6656000000.0 -0.00028704790747724473 0.000869757728651166
6657000000.0 0.00022766909387428313 0.0008518757531419396
6658000000.0 0.0005665863864123821 0.0006727636209689081
6659000000.0 0.000663700164295733 0.0002496411034371704
6660000000.0 0.0007472371216863394 -0.00010274952364852652
6661000000.0 0.0006652447627857327 -0.00043266027932986617
6662000000.0 0.00044627164606936276 -0.0006442458834499121
6663000000.0 5.1842842367477715e-05 -0.0007247449248097837
6664000000.0 -0.0002463616256136447 -0.0006478634895756841
6665000000.0 -0.0005854291375726461 -0.0005101002170704305
6666000000.0 -0.0007348551880568266 -7.693061343161389e-05
6667000000.0 -0.0006952324765734375 8.802319644019008e-05
6668000000.0 -0.0004459523188415915 0.0004286793991923332
6669000000.0 -0.0002209407539339736 0.0005198573344387114
6670000000.0 0.0001767623471096158 0.000692101486492902
6671000000.0 0.0004144590930081904 0.0006924453191459179
6672000000.0 0.0006889476790092885 0.0003504015621729195
6673000000.0 0.0006809457554481924 2.5734163500601426e-05
6674000000.0 0.000744466669857502 -0.0002689642715267837
6675000000.0 0.0004847679811064154 -0.0005148348864167929
6676000000.0 0.00018853694200515747 -0.0007903307559899986
6677000000.0 -0.0001652226783335209 -0.0007683624280616641
6678000000.0 -0.00044026965042576194 -0.0006201091455295682
6679000000.0 -0.0007809305097907782 -0.00022599824296776205
6680000000.0 -0.0007826826185919344 0.000129682885017246
6681000000.0 -0.0005438544321805239 0.00036898188409395516
6682000000.0 -0.0003254706971347332 0.0007178620435297489
6683000000.0 6.756422226317227e-05 0.0007015672163106501
6684000000.0 0.00031890071113593876 0.0006409427733160555
6685000000.0 0.0006848959601484239 0.00037135405000299215
6686000000.0 0.0009150822297669947 5.434056220110506e-05
6687000000.0 0.0006901705637574196 -0.0003389875637367368
6688000000.0 0.00048577701090835035 -0.0007496891194023192
6689000000.0 0.00012477653217501938 -0.0008368658018298447
6690000000.0 -0.00029894066392444074 -0.0009542903862893581
6691000000.0 -0.0005357917980290949 -0.0005691965925507247
6692000000.0 -0.000950290821492672 -0.00034761521965265274
6693000000.0 -0.0010299863060936332 0.00010993361502187327
6694000000.0 -0.0006594208534806967 0.0006143766804598272
6695000000.0 -0.0003628330596257001 0.0008179013966582716
6696000000.0 6.845615280326456e-05 0.0009132598643191159
6697000000.0 0.000638195255305618 0.0007204224821180105
6698000000.0 0.0008752873400226235 0.00048206860083155334
6699000000.0 0.0010717140976339579 -0.00013085457612760365
6700000000.0 0.0008379669161513448 -0.00047279923455789685
6701000000.0 0.0005526790046133101 -0.0009706848068162799
6702000000.0 -9.065340236702468e-06 -0.0010531872976571321
6703000000.0 -0.00040902491309680045 -0.0009372915374115109
6704000000.0 -0.0008902496192604303 -0.0005300441407598555
6705000000.0 -0.0010068233823403716 -5.520397826330736e-05
6706000000.0 -0.0008701150072738528 0.000529346929397434
6707000000.0 -0.0005256710574030876 0.0008295832085423172
6708000000.0 -0.00016092856822069734 0.0010139228543266654
6709000000.0 0.000430565036367625 0.0008904121932573617
6710000000.0 0.000815228559076786 0.000692632282152772
6711000000.0 0.0010362803004682064 4.4963071559323e-05
6712000000.0 0.0009660637588240206 -0.0003816686221398413
6713000000.0 0.0005277857417240739 -0.0007693333318457007
6714000000.0 9.444998431717977e-05 -0.0009883453603833914
6715000000.0 -0.00033057297696359456 -0.0010054184822365642
6716000000.0 -0.0008557984256185591 -0.0006952446419745684
6717000000.0 -0.0009646373800933361 -0.00025196594651788473
6718000000.0 -0.0010691086063161492 0.0003291020402684808
6719000000.0 -0.0008349852287210524 0.0006688367575407028
6720000000.0 -0.0003354316286277026 0.0010863981442525983
6721000000.0 0.0002714709553401917 0.0010949688730761409
6722000000.0 0.0006548933451995254 0.0008481620461679995
6723000000.0 0.0009352376800961792 0.0004774589033331722
6724000000.0 0.0009381698910146952 -0.00011936760711250827
6725000000.0 0.000874547753483057 -0.0005952105857431889
6726000000.0 0.0003979399043601006 -0.0008889613673090935
6727000000.0 -5.740928463637829e-05 -0.0011037843069061637
6728000000.0 -0.0005345104727894068 -0.0008437930373474956
6729000000.0 -0.0008309183176606894 -0.000527823343873024
6730000000.0 -0.000991547480225563 5.698450331692584e-05
6731000000.0 -0.0008924148278310895 0.0005285551305860281
6732000000.0 -0.0006351820193231106 0.0008839913061819971
6733000000.0 -0.000222480230149813 0.0010110113071277738
6734000000.0 0.00038362789200618863 0.0008154316456057131
6735000000.0 0.0008205208578146994 0.0005330870626494288
6736000000.0 0.001124094589613378 0.0001732931996230036
6737000000.0 0.0008839915972203016 -0.00035230189678259194
6738000000.0 0.0006368219037540257 -0.0007709214696660638
6739000000.0 0.0002615863340906799 -0.0008713023271411657
6740000000.0 -0.00029007959528826177 -0.0009262134553864598
6741000000.0 -0.0006333402125164866 -0.0006560994079336524
6742000000.0 -0.0009110663086175919 -0.00025086416280828416
6743000000.0 -0.000958247750531882 0.0002561757864896208
6744000000.0 -0.0005119052366353571 0.000645108928438276
6745000000.0 -0.00028025993378832936 0.0007199888350442052
6746000000.0 0.00014259954332374036 0.0008726148516871035
6747000000.0 0.000619894010014832 0.0005574047681875527
6748000000.0 0.0008437972282990813 0.0002625121269375086
6749000000.0 0.0007707448094151914 -0.00013698532711714506
6750000000.0 0.0006114133284427226 -0.0004547273274511099
6751000000.0 0.0002541573776397854 -0.0007052531582303345
6752000000.0 -0.00010442905477248132 -0.0008071768097579479
6753000000.0 -0.0003145747759845108 -0.0005969029734842479
6754000000.0 -0.0006570087862201035 -0.00023313637939281762
6755000000.0 -0.0006900511798448861 -0.00012697058264166117
6756000000.0 -0.0007272912189364433 0.00034412695094943047
6757000000.0 -0.00032136347726918757 0.0004974748590029776
6758000000.0 -3.758485399885103e-05 0.0005572453956119716
6759000000.0 0.00029820678173564374 0.0005683093331754208
6760000000.0 0.0004883872461505234 0.0004108856082893908
6761000000.0 0.00046005923650227487 0.00010400853352621198
6762000000.0 0.0005310014239512384 -0.00013414889690466225
6763000000.0 0.0005871567991562188 -0.0004643984430003911
6764000000.0 0.0003179025661665946 -0.0005948803736828268
6765000000.0 -0.00011855319462483749 -0.000492339488118887
6766000000.0 -0.00022752552467864007 -0.0004912293516099453
6767000000.0 -0.0003989764372818172 -0.00022045015066396445
6768000000.0 -0.0004213560023345053 -4.017634637420997e-05
6769000000.0 -0.0005785332177765667 9.371048508910462e-05
6770000000.0 -0.00044489343417808414 0.0004815081774722785
6771000000.0 -3.4307049645576626e-05 0.0004747424100060016
6772000000.0 8.744062506593764e-05 0.0006169189000502229
6773000000.0 0.0003143663634546101 0.0004478122864384204
6774000000.0 0.00035126038710586727 0.00017110764747485518
6775000000.0 0.0005230597453191876 -0.0001263979938812554
6776000000.0 0.00044037861516699195 -0.0003027772472705692
6777000000.0 0.00031539180781692266 -0.0004567136347759515
6778000000.0 6.979959835007321e-06 -0.0005157433333806694
6779000000.0 -0.00011304611689411104 -0.000373830582248047
6780000000.0 -0.00026543220155872405 -0.00029984654975123703
6781000000.0 -0.0003536170406732708 -4.55363406217657e-05
6782000000.0 -0.00045641500037163496 0.00013833453704137355
6783000000.0 -0.000510096549987793 0.0002466182631906122
6784000000.0 -0.0002475740038789809 0.0005508863250724971
6785000000.0 -6.68123975628987e-05 0.0005252153496257961
6786000000.0 0.0001911420258693397 0.00037739184335805476
6787000000.0 0.0005281392368488014 0.00025607686256989837
6788000000.0 0.00042187023791484535 -5.102628711028956e-05
6789000000.0 0.00039996689883992076 -0.00018493738025426865
6790000000.0 0.0002403623511781916 -0.00033117737621068954
6791000000.0 0.00011845554399769753 -0.000533872633241117
6792000000.0 -0.00011233339319005609 -0.0006098530138842762
6793000000.0 -0.00026842273655347526 -0.0004542141978163272
6794000000.0 -0.0004947826964780688 -0.0001577921793796122
6795000000.0 -0.0006022119196131825 -3.8562106396966556e-07
6796000000.0 -0.0004744903708342463 0.0004258337721694261
6797000000.0 -0.00023180240532383323 0.0005531597416847944
6798000000.0 -2.251525074825622e-05 0.0005574426031671464
6799000000.0 0.0002613407268654555 0.00042702056816779077
6800000000.0 0.0004564545815810561 0.00041019736090674996
6801000000.0 0.0007641416741535068 0.00013299826241564006
6802000000.0 0.0005675521679222584 -0.00030658551258966327
6803000000.0 0.0002801714581437409 -0.0006309049786068499
6804000000.0 2.8386195481289178e-05 -0.0007273849914781749
6805000000.0 -0.0003599011979531497 -0.0007648048922419548
6806000000.0 -0.0005656975554302335 -0.0005251442198641598
6807000000.0 -0.0005652819527313113 -0.0002030997275141999
6808000000.0 -0.0008287296514026821 0.00011646544589893892
6809000000.0 -0.0005642336909659207 0.0004308982170186937
6810000000.0 -0.0003679388028103858 0.0006127734668552876
6811000000.0 0.00011904714483534917 0.0007220747647807002
6812000000.0 0.0005831933813169599 0.000671605987008661
6813000000.0 0.0007367551443167031 0.00022468375391326845
6814000000.0 0.0007329135551117361 -0.0002951080386992544
6815000000.0 0.0005487464950419962 -0.0004979699151590466
6816000000.0 0.00023516820510849357 -0.0008275482105091214
6817000000.0 -0.000141861368319951 -0.0008590954239480197
6818000000.0 -0.0004033947188872844 -0.0005272931302897632
6819000000.0 -0.0006810055929236114 -0.0003035258559975773
6820000000.0 -0.000825445749796927 1.2656819308176637e-05
6821000000.0 -0.0005375216132961214 0.00042562565067783
6822000000.0 -0.00031837046844884753 0.000758693611714989
6823000000.0 5.8115572755923495e-05 0.0006653086747974157
6824000000.0 0.0002892527845688164 0.0005609169602394104
6825000000.0 0.0006864958559162915 0.0002491394989192486
6826000000.0 0.000675093790050596 0.00015377692761830986
6827000000.0 0.0005768017726950347 -0.00023896525090094656
6828000000.0 0.00030332955066114664 -0.0006109166424721479
6829000000.0 2.1876334358239546e-05 -0.0006808763137087226
6830000000.0 -0.00025892778648994863 -0.0007258513942360878
6831000000.0 -0.0005355749162845314 -0.0005181833985261619
6832000000.0 -0.0007156595820561051 -0.00021659540652763098
6833000000.0 -0.0006527540390379727 0.00024187046801671386
6834000000.0 -0.0006951380055397749 0.0003544905048329383
6835000000.0 -0.00023383114603348076 0.0007918189512565732
6836000000.0 -1.761391104082577e-05 0.0009227079572156072
6837000000.0 0.00032548088347539306 0.0007499477360397577
6838000000.0 0.0007127698045223951 0.0002612275129649788
6839000000.0 0.0007230304763652384 5.200737723498605e-05
6840000000.0 0.0007638083188794553 -0.00027238455368205905
6841000000.0 0.0004354054108262062 -0.0006258568027988076
6842000000.0 6.420506542781368e-05 -0.0007527725538238883
6843000000.0 -0.00042575717088766396 -0.0009151683771051466
6844000000.0 -0.000730754982214421 -0.0004330012307036668
6845000000.0 -0.0010613473132252693 -9.449746721656993e-05
6846000000.0 -0.0007859003380872309 0.00031509995460510254
6847000000.0 -0.0006491372478194535 0.0006575481384061277
6848000000.0 -0.00023088479065336287 0.0009971774416044354
6849000000.0 0.0002402596437605098 0.000881449319422245
6850000000.0 0.0005947767058387399 0.000691794091835618
6851000000.0 0.0008527130703441799 0.00030995323322713375
6852000000.0 0.0008742901845835149 -0.00018838630057871342
6853000000.0 0.000749443017411977 -0.0005345895187929273
6854000000.0 0.00015706253179814667 -0.0009849905036389828
6855000000.0 -0.0002484402502886951 -0.0009135634754784405
6856000000.0 -0.0009050019434653223 -0.000756044639274478
6857000000.0 -0.0009255546028725803 -0.00019841383618768305
6858000000.0 -0.0009721469250507653 0.000458225782494992
6859000000.0 -0.0006895738188177347 0.0005944310687482357
6860000000.0 -0.00022997443738859147 0.0007481022621504962
6861000000.0 0.00024581514298915863 0.000978049822151661
6862000000.0 0.000665083120111376 0.0007444684160873294
6863000000.0 0.0008726498926989734 0.00045201907050795853
6864000000.0 0.0008442882681265473 -0.00010343644680688158
6865000000.0 0.0006812254432588816 -0.000702852790709585
6866000000.0 0.000302934116916731 -0.0009740146924741566
6867000000.0 -0.00016387314826715738 -0.0011033882619813085
6868000000.0 -0.0004974442417733371 -0.0007055472815409303
6869000000.0 -0.0007507757982239127 -0.0005206887144595385
6870000000.0 -0.0010227714665234089 -1.2198200238344725e-05
6871000000.0 -0.000861511449329555 0.0004545553820207715
6872000000.0 -0.0003831684298347682 0.0007407406228594482
6873000000.0 2.9708313377341256e-05 0.0007172832847572863
6874000000.0 0.00031687901355326176 0.0008153199451044202
6875000000.0 0.0006271387101151049 0.0004903494846075773
6876000000.0 0.0008190092630684376 3.400176501600072e-05
6877000000.0 0.0008086116868071258 -0.00026107500889338553
6878000000.0 0.0005608292412944138 -0.00045566968037746847
6879000000.0 0.00014449574518948793 -0.0006486311904154718
6880000000.0 -0.00013015024887863547 -0.0007278810371644795
6881000000.0 -0.00041654950473457575 -0.0005787764675915241
6882000000.0 -0.0007165440474636853 -0.00035818348987959325
6883000000.0 -0.0006976391305215657 6.106285699303271e-09
6884000000.0 -0.0006651915609836578 0.00041232671355828643
6885000000.0 -0.0004582212131936103 0.0005081127746962011
6886000000.0 -0.000180679329787381 0.0007031908608041704
6887000000.0 0.0003001027216669172 0.000714254507329315
6888000000.0 0.0006247317651286721 0.00044505554251372814
6889000000.0 0.0007348026265390217 0.0001623793796170503
6890000000.0 0.0006641399231739342 -0.0003625008976086974
6891000000.0 0.00047673124936409295 -0.0004523445386439562
6892000000.0 0.0001731276570353657 -0.0007025205413810909
6893000000.0 -5.030175088904798e-05 -0.0007504066452383995
6894000000.0 -0.0005597714334726334 -0.00048304314259439707
6895000000.0 -0.0005720028420910239 -0.00019347516354173422
6896000000.0 -0.0008350727148354053 0.00021344880224205554
6897000000.0 -0.0006712423055432737 0.00038649135967716575
6898000000.0 -0.0003359018010087311 0.0005732987192459404
6899000000.0 -2.186434176110197e-05 0.0007100864313542843
6900000000.0 0.00037534613511525095 0.000755184970330447
6901000000.0 0.0008385975961573422 0.0003339841787237674
6902000000.0 0.0008147013722918928 1.789964153431356e-05
6903000000.0 0.0008172440575435758 -0.0003672288148663938
6904000000.0 0.00041435810271650553 -0.0007154058548621833
6905000000.0 9.530885290587321e-05 -0.0008643166511319578
6906000000.0 -0.0002615835692267865 -0.0006275190971791744
6907000000.0 -0.0005815666518174112 -0.00045910762855783105
6908000000.0 -0.0007647463935427368 -0.00011850463488372043
6909000000.0 -0.0007114608306437731 0.00033195913420058787
6910000000.0 -0.0006493370747193694 0.0005377112538553774
6911000000.0 -0.00011957727838307619 0.0007356639835052192
6912000000.0 0.00014836082118563354 0.0006851746002212167
6913000000.0 0.0005043202545493841 0.0006397620309144258
6914000000.0 0.000658373930491507 0.00035916577326133847
6915000000.0 0.0008294120780192316 -1.8756372810457833e-05
6916000000.0 0.0006211595609784126 -0.0004584875132422894
6917000000.0 0.00031692953780293465 -0.0005199838196858764
6918000000.0 3.893280518241227e-05 -0.0007565681589767337
6919000000.0 -0.0003186327812727541 -0.0006042431923560798
6920000000.0 -0.0007317024865187705 -0.0004322494496591389
6921000000.0 -0.0007722492446191609 -6.940254388609901e-05
6922000000.0 -0.0005801342194899917 0.00031288195168599486
6923000000.0 -0.00043429346987977624 0.0004425338702276349
6924000000.0 -0.0001753673714119941 0.0006196482572704554
6925000000.0 0.0001740151346893981 0.0007473723962903023
6926000000.0 0.0003146069939248264 0.00043332288623787463
6927000000.0 0.0007078723283484578 0.00024960338487289846
6928000000.0 0.0006784648285247386 -7.095297041814774e-05
6929000000.0 0.0005553929950110614 -0.00030689092818647623
6930000000.0 0.0002750690618995577 -0.0005795377655886114
6931000000.0 -0.0002608549839351326 -0.000709232350345701
6932000000.0 -0.0002645663917064667 -0.0004973459872417152
6933000000.0 -0.0005659187445417047 -0.00036350192385725677
6934000000.0 -0.0005486530135385692 -4.170413376414217e-05
6935000000.0 -0.000615336699411273 0.00015752394392620772
6936000000.0 -0.0003834239032585174 0.0005463722627609968
6937000000.0 -0.00017427242710255086 0.0006050640367902815
6938000000.0 0.00019962033547926694 0.0006207002443261445
6939000000.0 0.0004098792269360274 0.000507307006046176
6940000000.0 0.0005400337977334857 0.00037425197660923004
6941000000.0 0.0006211227737367153 -6.50748988846317e-05
6942000000.0 0.0006244549294933677 -0.00018342159455642104
6943000000.0 0.00046458281576633453 -0.0005542272701859474
6944000000.0 4.5565146137960255e-05 -0.0005769485724158585
6945000000.0 -0.00029666366754099727 -0.0006339871906675398
6946000000.0 -0.0005501506966538727 -0.0004189065657556057
6947000000.0 -0.0006714219925925136 -8.714964496903121e-05
6948000000.0 -0.0007499456987716258 0.00021350456518121064
6949000000.0 -0.0004696839314419776 0.0006412623915821314
6950000000.0 -0.00022418108710553497 0.0006718264194205403
6951000000.0 5.374581814976409e-05 0.000685413833707571
6952000000.0 0.0005260823527351022 0.0004929319256916642
6953000000.0 0.0008429992594756186 0.00036640296457335353
6954000000.0 0.0007195084472186863 -0.0002078356919810176
6955000000.0 0.0007659792900085449 -0.0004194617213215679
6956000000.0 0.00048589668585918844 -0.0007545548141933978
6957000000.0 8.317238825839013e-05 -0.0008319238550029695
6958000000.0 -0.0004392776172608137 -0.0007776012062095106
6959000000.0 -0.0007157234940677881 -0.0004054208693560213
6960000000.0 -0.0007405169308185577 -2.15469190152362e-05
6961000000.0 -0.0008299262262880802 0.000425356556661427
6962000000.0 -0.0005871179746463895 0.0007583788246847689
6963000000.0 -0.00018515702686272562 0.0008153165690600872
6964000000.0 0.00026073434855788946 0.0009737479849718511
6965000000.0 0.0005797467892989516 0.0006262499955482781
6966000000.0 0.0008702710620127618 0.00027438151300884783
6967000000.0 0.0008024261333048344 -0.000209093137527816
6968000000.0 0.0006954321288503706 -0.0007496029720641673
6969000000.0 0.000152630775119178 -0.0008234925917349756
6970000000.0 -0.00012448416964616627 -0.000993517809547484
6971000000.0 -0.0006263795075938106 -0.0006765927537344396
6972000000.0 -0.000861588807310909 -0.0003180110070388764
6973000000.0 -0.0010405578650534153 0.000137213573907502
6974000000.0 -0.0007477061590179801 0.0005470169126056135
6975000000.0 -0.00033380804234184325 0.0007555056363344193
6976000000.0 0.00017335114534944296 0.0009159147157333791
6977000000.0 0.0005299695767462254 0.0007200560066848993
6978000000.0 0.0007786161149851978 0.0001992483448702842
6979000000.0 0.0009017714182846248 -0.00015074279508553445
6980000000.0 0.0006709982990287244 -0.0005188723444007337
6981000000.0 0.0004027806280646473 -0.0007487030234187841
6982000000.0 0.000136667862534523 -0.0008427795255556703
6983000000.0 -0.00029371504206210375 -0.0008164752507582307
6984000000.0 -0.0007147648721002042 -0.0006072026444599032
6985000000.0 -0.0007997580687515438 -0.00012008220073767006
6986000000.0 -0.0007117156055755913 0.0002487555902916938
6987000000.0 -0.0004709323402494192 0.0005586289335042238
6988000000.0 -0.00012093053373973817 0.0008834154577925801
6989000000.0 8.33693629829213e-05 0.0008360547944903374
6990000000.0 0.0005501309060491621 0.0005277991876937449
6991000000.0 0.0006609580013900995 0.00031680602114647627
6992000000.0 0.0008844107505865395 -5.6776996643748134e-05
6993000000.0 0.0005153043894097209 -0.00043167409603483975
6994000000.0 0.00039649338577874005 -0.0008180583827197552
6995000000.0 7.979210931807756e-05 -0.0007856505108065903
6996000000.0 -0.0004209830949548632 -0.0006856750696897507
6997000000.0 -0.0006710586603730917 -0.0005342265940271318
6998000000.0 -0.0007878383039496839 3.071137689403258e-05
6999000000.0 -0.0007460510241799057 0.0004229338373988867
7000000000.0 -0.0005580851575359702 0.0006272737518884242
