! Created with skrf 1.10.0 (http://scikit-rf.org).
# Hz S RI R 50.0 
!freq ReS11 ImS11
!
6000000000.0 -0.0006644654786214232 -0.0028834736440330744
6001000000.0 -0.0019781123846769333 -0.0021511740051209927
6002000000.0 -0.0026842160150408745 -0.0009076871210709214
6003000000.0 -0.002836310537531972 0.0005164150497876108
6004000000.0 -0.00220612995326519 0.0016975088510662317
6005000000.0 -0.0010033432627096772 0.0024846673477441072
6006000000.0 9.035846596816555e-05 0.0027362778782844543
6007000000.0 0.0014973565703257918 0.0023483324330300093
6008000000.0 0.002417016541585326 0.0011730203405022621
6009000000.0 0.002828117460012436 -7.029588596196845e-05
6010000000.0 0.0025142135564237833 -0.0010864663636311889
6011000000.0 0.001589098246768117 -0.002270434284582734
6012000000.0 0.00027813046472147107 -0.002776532433927059
6013000000.0 -0.0011069723404943943 -0.0024798244703561068
6014000000.0 -0.001945239375345409 -0.0016935105668380857
6015000000.0 -0.002595539903268218 -0.0005327251856215298
6016000000.0 -0.002677455311641097 0.0008175169350579381
6017000000.0 -0.0018144567729905248 0.0018246761756017804
6018000000.0 -0.0007641481352038682 0.002540226560086012
6019000000.0 0.0007641821866855025 0.002477055648341775
6020000000.0 0.001827653031796217 0.0018991738324984908
6021000000.0 0.00224972958676517 0.0008238250156864524
6022000000.0 0.002083288040012121 -0.0003885001642629504
6023000000.0 0.0016162514220923185 -0.0011832303134724498
6024000000.0 0.000775133550632745 -0.0018767239525914192
6025000000.0 -0.00010960848157992586 -0.0018984965281561017
6026000000.0 -0.0007050800486467779 -0.0016473002033308148
6027000000.0 -0.0012544417986646295 -0.0009284091647714376
6028000000.0 -0.0020816901233047247 -0.0007822373881936073
6029000000.0 -0.0037821896839886904 -0.0026019893120974302
6030000000.0 -0.0016049594851210713 0.001242452533915639
6031000000.0 -0.001172172138467431 0.0021642541978508234
6032000000.0 -6.835681415395811e-05 0.0026085744611918926
6033000000.0 0.0012865246972069144 0.002366931876167655
6034000000.0 0.0023401787038892508 0.001598629169166088
6035000000.0 0.0028439569287002087 0.000236643580137752
6036000000.0 0.0026897580828517675 -0.0013088507112115622
6037000000.0 0.0016985205002129078 -0.0024087915662676096
6038000000.0 0.000301212421618402 -0.00309096765704453
6039000000.0 -0.001269621541723609 -0.002802170580253005
6040000000.0 -0.0025568949058651924 -0.0018460816936567426
6041000000.0 -0.0031982327345758677 -0.0003188889822922647
6042000000.0 -0.002978310687467456 0.0012830051127821207
6043000000.0 -0.002098323777318001 0.0024901898577809334
6044000000.0 -0.0005651784013025463 0.0030819436069577932
6045000000.0 0.0010594354243949056 0.0030852353665977716
6046000000.0 0.002450629835948348 0.0023267839569598436
6047000000.0 0.003453898709267378 0.0007627274026162922
6048000000.0 0.0033789766021072865 -0.0008062250562943518
6049000000.0 0.002559937769547105 -0.002601161366328597
6050000000.0 0.000966956780757755 -0.00370098277926445
6051000000.0 -0.0010282760486006737 -0.003733610501512885
6052000000.0 -0.002788504585623741 -0.0029899540822952986
6053000000.0 -0.004054277669638395 -0.001204396947287023
6054000000.0 -0.004161503631621599 0.0010407373774796724
6055000000.0 -0.003002922749146819 0.003224422922357917
6056000000.0 -0.001167398295365274 0.004510093946009874
6057000000.0 0.0013503083027899265 0.004633973352611065
6058000000.0 0.0037023210898041725 0.00354639976285398
6059000000.0 0.00541747035458684 0.0011013871990144253
6060000000.0 0.005796296056360006 -0.001925327000208199
6061000000.0 0.0047003054060041904 -0.005694141611456871
6062000000.0 0.0009648324339650571 -0.010348218493163586
6063000000.0 -0.018096545711159706 -0.011628429405391216
6064000000.0 -0.012064031325280666 0.018288545310497284
6065000000.0 0.012585216201841831 0.004817257169634104
6066000000.0 0.003971800208091736 -0.0021041412837803364
6067000000.0 0.000827558571472764 -0.0020150465425103903
6068000000.0 -0.0006151758716441691 -0.0013427936937659979
6069000000.0 -0.001010253094136715 -0.0003388171608094126
6070000000.0 -0.0007443142822012305 0.0006032066303305328
6071000000.0 -0.00017157926049549133 0.0009218965424224734
6072000000.0 0.0005256155855022371 0.0009685144177637994
6073000000.0 0.0010329736396670341 0.0005382851813919842
6074000000.0 0.0009100206661969423 -0.00023823227093089372
6075000000.0 0.0008972860523499548 -0.0006099368329159915
6076000000.0 0.0004486346442718059 -0.0010095229372382164
6077000000.0 -0.0002542426809668541 -0.0013336862903088331
6078000000.0 -0.000999669311568141 -0.0009286178392358124
6079000000.0 -0.001121247885748744 -0.00027728412533178926
6080000000.0 -0.0012137863086536527 6.699486402794719e-05
6081000000.0 -0.0009959624148905277 0.0007953927270136774
6082000000.0 -0.0005880633252672851 0.0012142800260335207
6083000000.0 -1.4422765161725692e-05 0.0014208609936758876
6084000000.0 0.0009317764779552817 0.0011448183795437217
6085000000.0 0.0011808245908468962 0.0007845510262995958
6086000000.0 0.001534651848487556 -0.00018090008234139532
6087000000.0 0.001249372842721641 -0.0008773127337917686
6088000000.0 0.0006400501006282866 -0.0011601959122344851
6089000000.0 -0.00012108190276194364 -0.0016218168893828988
6090000000.0 -0.0005558655830100179 -0.0012523424811661243
6091000000.0 -0.0011906652944162488 -0.0007787829381413758
6092000000.0 -0.0013329843059182167 -0.00028857181314378977
6093000000.0 -0.0015863549197092652 0.0005000511300750077
6094000000.0 -0.0010509946150705218 0.001114272279664874
6095000000.0 -0.0003401608264539391 0.0014413709286600351
6096000000.0 0.00035736634163185954 0.001517097232863307
6097000000.0 0.0012310683960095048 0.0013644170248880982
6098000000.0 0.0017899207305163145 0.0005011747125536203
6099000000.0 0.0021688472479581833 -0.000454387569334358
6100000000.0 0.0017701847245916724 -0.0018313828622922301
6101000000.0 0.0003736517101060599 -0.0025225989520549774
6102000000.0 -0.0009310970781370997 -0.0022093947045505047
6103000000.0 -0.002287427196279168 -0.001058343448676169
6104000000.0 -0.002243108581751585 0.0005440904060378671
6105000000.0 -0.0017209734069183469 0.001596724265255034
6106000000.0 -0.00023931701434776187 0.0020679922308772802
6107000000.0 0.0010478380136191845 0.0015634699957445264
6108000000.0 0.0014734006254002452 0.0007564662955701351
6109000000.0 0.0013272170908749104 -0.00019456760492175817
6110000000.0 0.000799894449301064 -0.000674643088132143
6111000000.0 0.0005718033062294126 -0.0009218985796906054
6112000000.0 -0.0003406378091312945 -0.0010275783715769649
6113000000.0 -0.0005336449830792844 -0.0004674832453019917
6114000000.0 -0.0006405191379599273 -0.0001693243975751102
6115000000.0 -0.0006508161895908415 -9.106012294068933e-05
6116000000.0 -0.00040832289960235357 0.0005072991480119526
6117000000.0 9.374382352689281e-05 0.00042330368887633085
6118000000.0 0.00012858155241701752 0.00028989464044570923
6119000000.0 0.0002474226930644363 5.538962795981206e-05
6120000000.0 0.0002083504805341363 -4.695636744145304e-05
6121000000.0 7.286600157385692e-05 -0.00010491957800695673
6122000000.0 -8.165288454620168e-05 -4.842626003664918e-05
6123000000.0 -0.0004941824008710682 -1.7709895473672077e-05
6124000000.0 -0.00028570840368047357 0.0004152798792347312
6125000000.0 -0.00012156071898061782 0.0005700470064766705
6126000000.0 0.00022860296303406358 0.00037951197009533644
6127000000.0 0.0005589302745647728 0.00020568135369103402
6128000000.0 0.0008280937327072024 -4.533482569968328e-05
6129000000.0 0.0006194907473400235 -0.0008593021193519235
6130000000.0 0.0001433494035154581 -0.0008245789795182645
6131000000.0 -4.833771163248457e-05 -0.0008533115033060312
6132000000.0 -0.0007754242396913469 -0.0007813923875801265
6133000000.0 -0.0011414673645049334 -0.00021361121616791934
6134000000.0 -0.0011774603044614196 0.00033871803316287696
6135000000.0 -0.0008726944215595722 0.0006869770004414022
6136000000.0 -0.00039976416155695915 0.0014725724468007684
6137000000.0 0.0003897087008226663 0.0014107853639870882
6138000000.0 0.0009775182697921991 0.0009994240244850516
6139000000.0 0.001355233252979815 0.00043602590449154377
6140000000.0 0.0014807748375460505 -0.00027316767955198884
6141000000.0 0.0011704247444868088 -0.0012326998403295875
6142000000.0 0.000460050068795681 -0.0016664922004565597
6143000000.0 -0.000425976439146325 -0.0017455602064728737
6144000000.0 -0.0013955123722553253 -0.0011405089171603322
6145000000.0 -0.0017828956479206681 -0.00049383076839149
6146000000.0 -0.0018984080525115132 0.0006509942468255758
6147000000.0 -0.0013541255611926317 0.001506567350588739
6148000000.0 -0.0005782520165666938 0.002275414066389203
6149000000.0 0.0006630647694692016 0.0020824233070015907
6150000000.0 0.0019821764435619116 0.001223033177666366
6151000000.0 0.0025008791126310825 0.00027496879920363426
6152000000.0 0.002395264571532607 -0.0008193786488845944
6153000000.0 0.0014949454925954342 -0.002214271342381835
6154000000.0 3.233112147427164e-05 -0.0024804186541587114
6155000000.0 -0.001241012243553996 -0.002251693978905678
6156000000.0 -0.002439645351842046 -0.0011483044363558292
6157000000.0 -0.0026965271681547165 0.0004986238200217485
6158000000.0 -0.002053216565400362 0.001825992832891643
6159000000.0 -0.0002602477325126529 0.0027620040345937014
6160000000.0 0.0013707233592867851 0.002486903453245759
6161000000.0 0.002610699739307165 0.0006859974819235504
6162000000.0 0.0022026710212230682 -0.0010448888642713428
6163000000.0 0.000545293150935322 -0.0019608524162322283
6164000000.0 -0.0007920808275230229 -0.0011943005956709385
6165000000.0 -0.0008274182910099626 -0.0002440776297589764
6166000000.0 -0.00020539968681987375 0.00038096262142062187
6167000000.0 0.00032212212681770325 -3.130952245555818e-05
6168000000.0 4.235056258039549e-05 -0.0003870207874570042
6169000000.0 -0.00013565451081376523 -0.0005876590148545802
6170000000.0 -0.0004998516524210572 -0.0006158166797831655
6171000000.0 -0.0008791529689915478 -2.907325870182831e-05
6172000000.0 -0.0007511165458709002 0.00039237929740920663
6173000000.0 -0.00047968540457077324 0.0008680252940393984
6174000000.0 0.0001820625620894134 0.0011429627193138003
6175000000.0 0.0007504583918489516 0.000850500597152859
6176000000.0 0.0011451299069449306 0.00035546961589716375
6177000000.0 0.0010443192441016436 -0.00020502546976786107
6178000000.0 0.0005238063167780638 -0.0007899122429080307
6179000000.0 0.00010138416837435216 -0.0008616268751211464
6180000000.0 -0.00024546257918700576 -0.0008128519402816892
6181000000.0 -0.0008384099346585572 -0.0003424614551477134
6182000000.0 -0.0006676145130768418 8.430360139755066e-06
6183000000.0 -0.0007543188403360546 0.00027582250186242163
6184000000.0 -0.00036822116817347705 0.0004827735247090459
6185000000.0 -0.0003284223785158247 0.0004900830099359155
6186000000.0 -2.8899108656332828e-05 0.00039284705417230725
6187000000.0 -4.765532139572315e-05 0.0003717707295436412
6188000000.0 0.0002613001852296293 0.0003238313365727663
6189000000.0 0.0005472233169712126 0.00032167157041840255
6190000000.0 0.000405303668230772 3.062337054871023e-05
6191000000.0 0.000528590870089829 -0.00032033814932219684
6192000000.0 0.00031665523420087993 -0.0003966690564993769
6193000000.0 0.0002984158636536449 -0.000678025942761451
6194000000.0 -0.00017328417743556201 -0.0005496638477779925
6195000000.0 -0.0004731502558570355 -0.0006119106546975672
6196000000.0 -0.0006612035213038325 -0.0003963306953664869
6197000000.0 -0.0009499633451923728 7.795212877681479e-05
6198000000.0 -0.0007205255096778274 0.0005553945084102452
6199000000.0 -0.0003974314604420215 0.0007892982685007155
6200000000.0 5.58004503545817e-05 0.0007379479357041419
6201000000.0 0.00040017106221057475 0.0006035968544892967
6202000000.0 0.0009241690277121961 0.00038551801117137074
6203000000.0 0.0007646497106179595 -9.531754039926454e-05
6204000000.0 0.0007512216689065099 -0.0004115150077268481
6205000000.0 0.0005529922200366855 -0.000819006294477731
6206000000.0 -9.053602116182446e-05 -0.0009022738668136299
6207000000.0 -0.0005176243139430881 -0.0007329561049118638
6208000000.0 -0.0007494977326132357 -0.0004832346166949719
6209000000.0 -0.0010950672440230846 9.367026359541342e-05
6210000000.0 -0.0006544151692651212 0.0005893717752769589
6211000000.0 -0.00018477147386875004 0.001150942174717784
6212000000.0 0.0005340148927643895 0.0009616744937375188
6213000000.0 0.000831210520118475 0.00046245710109360516
6214000000.0 0.0010427479865029454 -0.0003413961094338447
6215000000.0 0.0006359808030538261 -0.000744109449442476
6216000000.0 -4.232111314195208e-05 -0.0009074233821593225
6217000000.0 -0.0008764129015617073 -0.0005338959163054824
6218000000.0 -0.0011202378664165735 0.00017023073451127857
6219000000.0 -0.0006496491841971874 0.0008233170956373215
6220000000.0 0.00010513131564948708 0.0012144685024395585
6221000000.0 0.0008196382550522685 0.0006471884553320706
6222000000.0 0.001250635483302176 -0.00027204808429814875
6223000000.0 0.0009499585721641779 -0.0008361081127077341
6224000000.0 0.00017952395137399435 -0.0013007712550461292
6225000000.0 -0.0008968138718046248 -0.0013482036301866174
6226000000.0 -0.0013297107070684433 -0.0005746960523538291
6227000000.0 -0.0015715481713414192 0.00035172849311493337
6228000000.0 -0.001063370844349265 0.0014541177079081535
6229000000.0 -0.00011270573304500431 0.0017457908252254128
6230000000.0 0.0010283240117132664 0.0014913702616468072
6231000000.0 0.001696053659543395 0.0008264941279776394
6232000000.0 0.0015246736584231257 -0.00017155530804302543
6233000000.0 0.0013798566069453955 -0.001251085428521037
6234000000.0 0.0005889769527129829 -0.0015102055622264743
6235000000.0 -0.0004572062462102622 -0.0016555656911805272
6236000000.0 -0.0010555932531133294 -0.0012314904015511274
6237000000.0 -0.0016271951608359814 -0.0005924950237385929
6238000000.0 -0.0018438623519614339 0.00031762095750309527
6239000000.0 -0.0014473057817667723 0.0011900158133357763
6240000000.0 -0.0005970557103864849 0.0017399061471223831
6241000000.0 0.00017792655853554606 0.0020206996705383062
6242000000.0 0.0012697650818154216 0.0015613496070727706
6243000000.0 0.001954195089638233 0.0006866180920042098
6244000000.0 0.0022322512231767178 -0.00036443048156797886
6245000000.0 0.0016953854355961084 -0.0013407926307991147
6246000000.0 0.0008359764469787478 -0.002067272085696459
6247000000.0 -0.00031450734240934253 -0.002333841985091567
6248000000.0 -0.0014029537560418248 -0.0018675497267395258
6249000000.0 -0.002203988842666149 -0.0007917147595435381
6250000000.0 -0.0023404983803629875 0.00042563554598018527
6251000000.0 -0.0018012680811807513 0.001630289014428854
6252000000.0 -0.0005964317824691534 0.0023044846020638943
6253000000.0 0.0005135655519552529 0.0023923825938254595
6254000000.0 0.001703241840004921 0.0016623238334432244
6255000000.0 0.002328475471585989 0.0005502567510120571
6256000000.0 0.002319269347935915 -0.0006248339195735753
6257000000.0 0.001776098390109837 -0.0017591766081750393
6258000000.0 0.0004527549317572266 -0.002383510349318385
6259000000.0 -0.0007038098410703242 -0.0022344053722918034
6260000000.0 -0.001775130513124168 -0.0013372813118621707
6261000000.0 -0.00212525250390172 -0.0003136952000204474
6262000000.0 -0.001982880989089608 0.0007592472829855978
6263000000.0 -0.001265089027583599 0.0018382539274170995
6264000000.0 -0.0002066487941192463 0.0021389592438936234
6265000000.0 0.0007600223761983216 0.0017101390985772014
6266000000.0 0.0016338907880708575 0.000943124177865684
6267000000.0 0.0019164852565154433 9.434795356355608e-05
6268000000.0 0.0015607785899192095 -0.0010073758894577622
6269000000.0 0.0008217325084842741 -0.0015269506257027388
6270000000.0 -0.00023753043205942959 -0.001485040644183755
6271000000.0 -0.0007923986413516104 -0.0011443092953413725
6272000000.0 -0.0011164016323164105 -0.0004946599365212023
6273000000.0 -0.000902115018106997 0.00041892085573635995
6274000000.0 -0.0006231587613001466 0.00047734257532283664
6275000000.0 -0.00014429651491809636 0.0008414368494413793
6276000000.0 7.398704474326223e-05 0.0006841667345725
6277000000.0 0.00033685783273540437 0.00031981238862499595
6278000000.0 0.0004261526046320796 0.00022663424897473305
6279000000.0 0.0002346665714867413 0.00010416263830848038
6280000000.0 3.8127620882733027e-06 -5.146348485141061e-05
6281000000.0 0.00020995129307266325 -3.1362029403680936e-05
6282000000.0 0.00024514057440683246 0.00010450345143908635
6283000000.0 0.00029826033278368413 -8.608757343608886e-05
6284000000.0 0.00042668721289373934 -0.0001990611490327865
6285000000.0 0.00024133433180395514 -0.00023990757472347468
6286000000.0 1.913194137159735e-05 -0.0006041849264875054
6287000000.0 -0.00028731056954711676 -0.0006275373743847013
6288000000.0 -0.0005931754130870104 -0.0004584128619171679
6289000000.0 -0.0008807303383946419 -3.55573974957224e-05
6290000000.0 -0.0006577068124897778 0.0003961138427257538
6291000000.0 -0.0006892388337291777 0.0007705301395617425
6292000000.0 -3.536081567290239e-05 0.0007885823724791408
6293000000.0 0.0003869618522003293 0.0008282426279038191
6294000000.0 0.0006606406532227993 0.0006397784454748034
6295000000.0 0.0010445977095514536 6.978762394282967e-05
6296000000.0 0.0007808325462974608 -0.0003778160025831312
6297000000.0 0.0006906240596435964 -0.000736194895580411
6298000000.0 8.82287131389603e-05 -0.0010113782482221723
6299000000.0 -0.0003041284217033535 -0.000978925614617765
6300000000.0 -0.000613884418271482 -0.0006848778575658798
6301000000.0 -0.0008691796683706343 -0.00024199005565606058
6302000000.0 -0.0009980095783248544 0.00010619837848935276
6303000000.0 -0.0008835770422592759 0.0007958777132444084
6304000000.0 -0.00033031986095011234 0.0007745001348666847
6305000000.0 0.0001009634870570153 0.001001681899651885
6306000000.0 0.0005869016167707741 0.000803146103862673
6307000000.0 0.000943765917327255 0.00038750958628952503
6308000000.0 0.000816325715277344 -1.8030119463219307e-05
6309000000.0 0.0007840213947929442 -0.00042833961197175086
6310000000.0 0.0004974796320311725 -0.0007563187973573804
6311000000.0 -3.292872861493379e-05 -0.001036807894706726
6312000000.0 -0.0006132351118139923 -0.0009366757585667074
6313000000.0 -0.0007231863564811647 -0.0004886749666184187
6314000000.0 -0.0009897800628095865 6.154247967060655e-05
6315000000.0 -0.0007979815709404647 0.0003496470453683287
6316000000.0 -0.00043619723874144256 0.0007775318808853626
6317000000.0 -0.00012523337500169873 0.0008507539168931544
6318000000.0 0.00035865974496118724 0.0007416617590934038
6319000000.0 0.0006254479521885514 0.0002941158600151539
6320000000.0 0.0006594582227990031 9.763550770003349e-05
6321000000.0 0.0006523908232338727 -0.00031897067674435675
6322000000.0 0.00043012143578380346 -0.0003343740536365658
6323000000.0 7.460763299604878e-05 -0.0005489374743774533
6324000000.0 -0.00016694127407390624 -0.0002596652484498918
6325000000.0 -0.0001986645074794069 -0.00023475356283597648
6326000000.0 -0.00011720749171217903 -8.291568519780412e-05
6327000000.0 -0.00013362463505472988 -3.183304943377152e-05
6328000000.0 0.0001321643212577328 -0.00012427651381585747
6329000000.0 -0.00016817677533254027 -0.00032737088622525334
6330000000.0 -0.000502882816363126 -0.0005298533942550421
6331000000.0 -0.0007857113378122449 -8.395385520998389e-05
6332000000.0 -0.0010080273495987058 0.0005113731604069471
6333000000.0 -0.0004905868554487824 0.0012172311544418335
6334000000.0 0.00042775156907737255 0.001509623834863305
6335000000.0 0.0011883998522534966 0.0010423408821225166
6336000000.0 0.0015271315351128578 0.0003769222821574658
6337000000.0 0.0015051034279167652 -0.0007363663171418011
6338000000.0 0.000966566673014313 -0.0013572373427450657
6339000000.0 0.00019760429859161377 -0.0018253978341817856
6340000000.0 -0.0007209776085801423 -0.0017054026247933507
6341000000.0 -0.0015688432613387704 -0.000972751819062978
6342000000.0 -0.0019162235548719764 -0.0001545921404613182
6343000000.0 -0.001558151445351541 0.0007981024100445211
6344000000.0 -0.0012377201346680522 0.001536590396426618
6345000000.0 -0.00020558806136250496 0.0020558536052703857
6346000000.0 0.0007392049883492291 0.0018053248059004545
6347000000.0 0.0015952737303450704 0.001279074465855956
6348000000.0 0.0021635654848068953 0.00039305564132519066
6349000000.0 0.0020207217894494534 -0.0007300349534489214
6350000000.0 0.001635178690776229 -0.001754960510879755
6351000000.0 0.0005339393392205238 -0.0023293697740882635
6352000000.0 -0.0007870352710597217 -0.002469215774908662
6353000000.0 -0.0019333020318299532 -0.0017977668903768063
6354000000.0 -0.002668097149580717 -0.0005771864671260118
6355000000.0 -0.0027045048773288727 0.0007790836971253157
6356000000.0 -0.0019352640956640244 0.00218673562631011
6357000000.0 -0.0005611797096207738 0.002899997169151902
6358000000.0 0.001078764908015728 0.0029053797479718924
6359000000.0 0.0023555057123303413 0.0019425192149356008
6360000000.0 0.003026330843567848 0.00032055031624622643
6361000000.0 0.002992162946611643 -0.0012818448012694716
6362000000.0 0.0018382519483566284 -0.002608442911878228
6363000000.0 0.00017146325262729079 -0.0033112880773842335
6364000000.0 -0.0015802960842847824 -0.002633966039866209
6365000000.0 -0.0027482500299811363 -0.001527043990790844
6366000000.0 -0.0030820814426988363 0.00020055774075444788
6367000000.0 -0.00250245607458055 0.0017619814025238156
6368000000.0 -0.001160924439318478 0.0028582229278981686
6369000000.0 0.0004521150840446353 0.0027836638037115335
6370000000.0 0.001772437710314989 0.0019791177473962307
6371000000.0 0.002414573449641466 0.0007775932317599654
6372000000.0 0.0023263045586645603 -0.0005487885791808367
6373000000.0 0.0016610167222097516 -0.0014994607772678137
6374000000.0 0.0005461334949359298 -0.0020007421262562275
6375000000.0 -0.0004846123047173023 -0.0019129244610667229
6376000000.0 -0.001175495213828981 -0.0013878362951800227
6377000000.0 -0.0015758397057652473 -0.0004135434573981911
6378000000.0 -0.0014457165962085128 0.0002045779983745888
6379000000.0 -0.0010391386458650231 0.0009583833743818104
6380000000.0 -0.0005036928923800588 0.0012101619504392147
6381000000.0 6.885470065753907e-05 0.0012951318640261889
6382000000.0 0.0006873870734125376 0.0009926973143592477
6383000000.0 0.0009445644682273269 0.0005246279761195183
6384000000.0 0.0010490070562809706 3.1118186598178e-05
6385000000.0 0.0008378236088901758 -0.0003805002197623253
6386000000.0 0.0003959431196562946 -0.0007064675446599722
6387000000.0 0.00017297248996328562 -0.000676842755638063
6388000000.0 -0.00025821782764978707 -0.0006609488045796752
6389000000.0 -0.0003787004097830504 -0.00031028155353851616
6390000000.0 -0.0004568147996906191 -0.0001573122281115502
6391000000.0 -0.0002590211224742234 -4.718772106571123e-05
6392000000.0 -0.00015836917737033218 -5.111749123898335e-05
6393000000.0 -0.00028177653439342976 5.6250581110361964e-05
6394000000.0 -0.00032233636011369526 -1.6657980950185447e-06
6395000000.0 -0.00038531748577952385 0.00013232717174105346
6396000000.0 -0.0004506318364292383 0.0005537951365113258
6397000000.0 -7.604362326674163e-05 0.0007638253155164421
6398000000.0 0.0002936936216428876 0.0008624951587989926
6399000000.0 0.0007429796969518065 0.0006132780690677464
6400000000.0 0.0009587220847606659 0.00011072125198552385
6401000000.0 0.0009739716188050807 -0.0003085739735979587
6402000000.0 0.0006970601389184594 -0.0008181419689208269
6403000000.0 0.0003288130974397063 -0.0012447222834452987
6404000000.0 -0.00026357616297900677 -0.0012235627509653568
6405000000.0 -0.0009257954079657793 -0.0009096454014070332
6406000000.0 -0.0012849224731326103 -0.0004281675210222602
6407000000.0 -0.0014007868012413383 0.0003341521369293332
6408000000.0 -0.0011350709246471524 0.0008929884061217308
6409000000.0 -0.00044597266241908073 0.0014066719450056553
6410000000.0 0.00018761302635539323 0.0015388376777991652
6411000000.0 0.0010697073303163052 0.0012725552078336477
6412000000.0 0.001548265223391354 0.0006559688481502235
6413000000.0 0.0017015255289152265 -0.0002599255822133273
6414000000.0 0.0014652882236987352 -0.0010161565151065588
6415000000.0 0.0006667068228125572 -0.0017100878758355975
6416000000.0 -0.0003197853802703321 -0.001802232931368053
6417000000.0 -0.0010883648646995425 -0.001625107484869659
6418000000.0 -0.001709926757030189 -0.0007325500482693315
6419000000.0 -0.0018701552180573344 0.00023856956977397203
6420000000.0 -0.0015912726521492004 0.0011348784901201725
6421000000.0 -0.0008899016538634896 0.0016520378412678838
6422000000.0 0.00013123294047545642 0.0018439050763845444
6423000000.0 0.000986289931461215 0.0016148615395650268
6424000000.0 0.001659997971728444 0.000927797460462898
6425000000.0 0.0018681538058444858 5.893455818295479e-05
6426000000.0 0.001626890734769404 -0.0008514573564752936
6427000000.0 0.000954651040956378 -0.0015113245462998748
6428000000.0 0.0001120054948842153 -0.0017572562210261822
6429000000.0 -0.0007258725236169994 -0.001587132690474391
6430000000.0 -0.0013614543713629246 -0.0010657707462087274
6431000000.0 -0.0017109208274632692 -0.00035115930950269103
6432000000.0 -0.0015861622523516417 0.0005749807460233569
6433000000.0 -0.0011861046077683568 0.0012659624917432666
6434000000.0 -0.00038422862417064607 0.0015309893060475588
6435000000.0 0.00039295764872804284 0.001657602726481855
6436000000.0 0.001076789922080934 0.0012407394824549556
6437000000.0 0.0015277991769835353 0.0005922329146414995
6438000000.0 0.0015942888567224145 -0.0001218244869960472
6439000000.0 0.0015088805230334401 -0.0007865236257202923
6440000000.0 0.000865894544404 -0.00140874192584306
6441000000.0 0.00024910460342653096 -0.0017359028570353985
6442000000.0 -0.000605887034907937 -0.0017156832618638873
6443000000.0 -0.0015165007207542658 -0.0011312166461721063
6444000000.0 -0.0018533541588112712 -0.0002034635399468243
6445000000.0 -0.001782347448170185 0.0006586039089597762
6446000000.0 -0.0011609634384512901 0.0013346150517463684
6447000000.0 -0.0004672991926781833 0.0017572578508406878
6448000000.0 0.0005504395230673254 0.001774307806044817
6449000000.0 0.0012482097372412682 0.0014318890171125531
6450000000.0 0.0017895256169140339 0.0006427520420402288
6451000000.0 0.0020092339254915714 -0.00038553835474886
6452000000.0 0.0015697762137278914 -0.0012793861096724868
6453000000.0 0.0007570727611891925 -0.001910592895001173
6454000000.0 -0.00022934531443752348 -0.001983445370569825
6455000000.0 -0.0011442654067650437 -0.0017471937462687492
6456000000.0 -0.0018357245717197657 -0.0009416827815584838
6457000000.0 -0.002137932926416397 9.279974619857967e-05
6458000000.0 -0.0017613776726648211 0.0010578659130260348
6459000000.0 -0.0009812323842197657 0.0018977796426042914
6460000000.0 0.0001439552870579064 0.0020488430745899677
6461000000.0 0.0010673444485291839 0.0017741327174007893
6462000000.0 0.0017433494795113802 0.001090481411665678
6463000000.0 0.002003519795835018 0.00015548622468486428
6464000000.0 0.0018576272996142507 -0.0007631626795046031
6465000000.0 0.0013763172319158912 -0.001515525160357356
6466000000.0 0.0003414491657167673 -0.0020796118769794703
6467000000.0 -0.0006715317140333354 -0.0020183403976261616
6468000000.0 -0.001663021743297577 -0.0014497243100777268
6469000000.0 -0.002156027825549245 -0.0005768624832853675
6470000000.0 -0.002135583898052573 0.0006989614339545369
6471000000.0 -0.0016167399007827044 0.0016935778548941016
6472000000.0 -0.0005577493575401604 0.0023322943598031998
6473000000.0 0.0006174567970447242 0.002274362137541175
6474000000.0 0.0017672464018687606 0.0016222657868638635
6475000000.0 0.002236250787973404 0.000517080130521208
6476000000.0 0.0021760486997663975 -0.0008205196936614811
6477000000.0 0.0014591393992304802 -0.001793491654098034
6478000000.0 0.00029821129282936454 -0.002298896899446845
6479000000.0 -0.0008637590799480677 -0.002091008238494396
6480000000.0 -0.001835360424593091 -0.0012741601094603539
6481000000.0 -0.0021976279094815254 -0.00020408192358445376
6482000000.0 -0.001921275514177978 0.0010317337000742555
6483000000.0 -0.0010727972257882357 0.0017209858633577824
6484000000.0 5.0003680371446535e-05 0.001995865721255541
6485000000.0 0.0010980229126289487 0.0015933731338009238
6486000000.0 0.0016241002595052123 0.000708363251760602
6487000000.0 0.0016211398178711534 -0.00037516088923439384
6488000000.0 0.0010675990488380194 -0.0011801051441580057
6489000000.0 0.00015298178186640143 -0.0014176488621160388
6490000000.0 -0.0006887305062264204 -0.0010412994306534529
6491000000.0 -0.000882418651599437 -0.00028533636941574514
6492000000.0 -0.0006509600789286196 0.00020934423082508147
6493000000.0 -0.0002629701921250671 0.0003668205172289163
6494000000.0 8.37018305901438e-05 0.0002793435414787382
6495000000.0 0.00020477625366766006 8.540828275727108e-05
6496000000.0 7.845887012081221e-05 -0.00012571309343911707
6497000000.0 -0.00027668895199894905 -0.00024867456522770226
6498000000.0 -0.00046568099060095847 -2.630848939588759e-05
6499000000.0 -0.0004967534332536161 0.0002208020887337625
6500000000.0 -0.00029511464526876807 0.0005758919869549572
6501000000.0 -7.485181413358077e-05 0.0007397137815132737
6502000000.0 0.000505407399032265 0.0007035791641101241
6503000000.0 0.0008852630853652954 0.0002784363168757409
6504000000.0 0.0009882617741823196 -0.0002058826357824728
6505000000.0 0.0007988374563865364 -0.0007724337629042566
6506000000.0 0.0003673768078442663 -0.0010670532938092947
6507000000.0 -0.00037073768908157945 -0.0011312071001157165
6508000000.0 -0.000842601468320936 -0.0008230831590481102
6509000000.0 -0.0010720916325226426 -0.00039321795338764787
6510000000.0 -0.001170158153399825 0.0002465364814270288
6511000000.0 -0.0009413850493729115 0.0008030639146454632
6512000000.0 -0.0004883543588221073 0.0011961066629737616
6513000000.0 0.00021630513947457075 0.0013248850591480732
6514000000.0 0.000780579459387809 0.0011249411618337035
6515000000.0 0.001226308522745967 0.0005994121311232448
6516000000.0 0.0015150319086387753 -9.64378341450356e-05
6517000000.0 0.0012986533110961318 -0.0007920957286842167
6518000000.0 0.0007205808069556952 -0.001267020939849317
6519000000.0 4.21281365561299e-05 -0.0015028980560600758
6520000000.0 -0.0007173871272243559 -0.0014197814743965864
6521000000.0 -0.0014218506403267384 -0.0009023792808875442
6522000000.0 -0.0015422763535752892 -7.102696690708399e-05
6523000000.0 -0.0015838498948141932 0.0007277170661836863
6524000000.0 -0.0010148558067157865 0.0013031256385147572
6525000000.0 -0.00022525619715452194 0.001680100103840232
6526000000.0 0.0006819012342020869 0.0016568835126236081
6527000000.0 0.0014495152281597257 0.001148138428106904
6528000000.0 0.0017601782456040382 0.00033015196095220745
6529000000.0 0.001664330018684268 -0.0007363328477367759
6530000000.0 0.001260786666534841 -0.0015130903339013457
6531000000.0 0.0004466246464289725 -0.0019016285659745336
6532000000.0 -0.000691708002705127 -0.001858499483205378
6533000000.0 -0.0014197946293279529 -0.0012925586197525263
6534000000.0 -0.0019577783532440662 -0.0003559508768375963
6535000000.0 -0.0018553946865722537 0.0006152658024802804
6536000000.0 -0.0013189344899728894 0.0014272179687395692
6537000000.0 -0.0005033315974287689 0.0019045817898586392
6538000000.0 0.0004933265736326575 0.001845917315222323
6539000000.0 0.0014123707078397274 0.0013214197242632508
6540000000.0 0.0018807363230735064 0.00045655149733647704
6541000000.0 0.0017842035740613937 -0.000366487744031474
6542000000.0 0.0013385837664827704 -0.0013492030557245016
6543000000.0 0.0005068705650046468 -0.0016358759021386504
6544000000.0 -0.0002522420254535973 -0.0017690528184175491
6545000000.0 -0.0010202303528785706 -0.001438151695765555
6546000000.0 -0.0016850079409778118 -0.0006915536359883845
6547000000.0 -0.0017376234754920006 0.00012923435133416206
6548000000.0 -0.0015650419518351555 0.0009856809629127383
6549000000.0 -0.0008237338624894619 0.001521953963674605
6550000000.0 -3.64906809409149e-05 0.0017687230138108134
6551000000.0 0.0007515196339227259 0.0015366541920229793
6552000000.0 0.0013964551035314798 0.0010493446607142687
6553000000.0 0.0016972386511042714 0.00022897461894899607
6554000000.0 0.0015610844129696488 -0.0006743015837855637
6555000000.0 0.0011643358739092946 -0.0013121726224198937
6556000000.0 0.0003773178905248642 -0.0017258587758988142
6557000000.0 -0.0004067927657160908 -0.00170117465313524
6558000000.0 -0.001252397894859314 -0.0012797530507668853
6559000000.0 -0.001603558543138206 -0.0005898718954995275
6560000000.0 -0.0017230280209332705 0.00034360456629656255
6561000000.0 -0.0013838699087500572 0.0010719961719587445
6562000000.0 -0.0007813483825884759 0.0016650153556838632
6563000000.0 0.00012397071986924857 0.0017026154091581702
6564000000.0 0.0011102169519290328 0.0015574067365378141
6565000000.0 0.0016009893734008074 0.0008732574642635882
6566000000.0 0.001870269887149334 1.249529577762587e-05
6567000000.0 0.001611017039977014 -0.0007770350202918053
6568000000.0 0.0009486128110438585 -0.0014273662818595767
6569000000.0 0.000279630912700668 -0.0017249470110982656
6570000000.0 -0.000694265472702682 -0.0016087953699752688
6571000000.0 -0.0013795901322737336 -0.0013563274405896664
6572000000.0 -0.0017334441654384136 -0.00042601919267326593
6573000000.0 -0.0018994485726580024 0.00042777101043611765
6574000000.0 -0.0014753789873793721 0.0013553488533943892
6575000000.0 -0.0008645942434668541 0.0018467645859345794
6576000000.0 0.00030767929274588823 0.002135618356987834
6577000000.0 0.0013483964139595628 0.001815929776057601
6578000000.0 0.0020360660273581743 0.0009559792233631015
6579000000.0 0.002419821685180068 -0.00011166926560690627
6580000000.0 0.002156507922336459 -0.0013773388927802444
6581000000.0 0.0012005589669570327 -0.0024460675194859505
6582000000.0 -0.0003249067231081426 -0.00261735450476408
6583000000.0 -0.0017562287393957376 -0.0021121609024703503
6584000000.0 -0.0025558192282915115 -0.0010375522542744875
6585000000.0 -0.0026755607686936855 0.0004091666196472943
6586000000.0 -0.002174767665565014 0.001767848851159215
6587000000.0 -0.0008818637579679489 0.002580326283350587
6588000000.0 0.0005161864100955427 0.0026454541366547346
6589000000.0 0.001845087157562375 0.0019952249713242054
6590000000.0 0.002457016846165061 0.0007611443288624287
6591000000.0 0.002398523734882474 -0.0006019488791935146
6592000000.0 0.0018186266534030437 -0.0017217694548889995
6593000000.0 0.0007074937457218766 -0.0022643315605819225
6594000000.0 -0.0005998730193823576 -0.0022027853410691023
6595000000.0 -0.001477097044698894 -0.0015917661366984248
6596000000.0 -0.0020509168971329927 -0.0004896981990896165
6597000000.0 -0.0020104378927499056 0.0005495950463227928
6598000000.0 -0.001475874218158424 0.0012255122419446707
6599000000.0 -0.000525138049852103 0.0017252468969672918
6600000000.0 0.0004116247873753309 0.0018421377753838897
6601000000.0 0.0011039316887035966 0.0012868584599345922
6602000000.0 0.0015296664787456393 0.0006535978754982352
6603000000.0 0.001612388645298779 -0.00024475311511196196
6604000000.0 0.0012251706793904305 -0.000893184682354331
6605000000.0 0.0006408013869076967 -0.0013510355493053794
6606000000.0 -0.00014683805056847632 -0.0014146006433293223
6607000000.0 -0.0007274795789271593 -0.0010656609665602446
6608000000.0 -0.0011765548260882497 -0.0005851894966326654
6609000000.0 -0.0011521728010848165 2.285957998537924e-05
6610000000.0 -0.000914153759367764 0.0005326381651684642
6611000000.0 -0.0006447151536121964 0.0008323386427946389
6612000000.0 -9.126478835241869e-05 0.0008304159855470061
6613000000.0 0.0003667441487777978 0.0007333956891670823
6614000000.0 0.0004930729046463966 0.0006514720153063536
6615000000.0 0.0007423251518048346 0.00029965495923534036
6616000000.0 0.0007604564889334142 -3.976345033152029e-05
6617000000.0 0.0005139154382050037 -0.00031728859175927937
6618000000.0 0.0005176544073037803 -0.0005119614652357996
6619000000.0 0.0002474668435752392 -0.000635364034678787
6620000000.0 -0.00011362729128450155 -0.0007011767011135817
6621000000.0 -0.0003168417024426162 -0.0006489647785201669
6622000000.0 -0.0005844866391271353 -0.0003837871190626174
6623000000.0 -0.0006795761291868985 -0.00010526137339184061
6624000000.0 -0.0007459210464730859 0.0002719753247220069
6625000000.0 -0.0004718547279480845 0.00045118393609300256
6626000000.0 -0.00025695154909044504 0.0006884086178615689
6627000000.0 0.0001213196010212414 0.0006593138677999377
6628000000.0 0.00033350641024298966 0.0007270619389601052
6629000000.0 0.0006258687353692949 0.00048460441757924855
6630000000.0 0.0008385639521293342 0.00013864254287909716
6631000000.0 0.0007113942410796881 -0.00028783237212337554
6632000000.0 0.0007278757402673364 -0.0005912514170631766
6633000000.0 0.00032417199690826237 -0.0007574641495011747
6634000000.0 -5.928502287133597e-05 -0.0008421448874287307
6635000000.0 -0.0004964880063198507 -0.0008188131032511592
6636000000.0 -0.0008403932442888618 -0.00048444789717905223
6637000000.0 -0.001045163837261498 -0.00010608753655105829
6638000000.0 -0.0009959847666323185 0.0003855813411064446
6639000000.0 -0.0006956762517802417 0.000984318321570754
6640000000.0 -0.00023115664953365922 0.0012678245548158884
6641000000.0 0.0003512178373057395 0.0013052918948233128
6642000000.0 0.0008843452087603509 0.0009361827978864312
6643000000.0 0.0013456742744892836 0.0002735330199357122
6644000000.0 0.0014245827915146947 -0.00037531222915276885
6645000000.0 0.0010483356891199946 -0.0011091668857261539
6646000000.0 0.00033690061536617577 -0.001530895009636879
6647000000.0 -0.0006309925229288638 -0.0013589997543022037
6648000000.0 -0.0011373147135600448 -0.0011239135637879372
6649000000.0 -0.0014974565710872412 -0.0002671264810487628
6650000000.0 -0.0015111610991880298 0.0004919991479255259
6651000000.0 -0.000909184105694294 0.0011115180095657706
6652000000.0 -0.000326676934491843 0.001391018508002162
6653000000.0 0.0003622725489549339 0.0012799492105841637
6654000000.0 0.0009087384678423405 0.0009253331227228045
6655000000.0 0.0011908516753464937 0.00037860567681491375
6656000000.0 0.0013180008390918374 -0.00023141212295740843
6657000000.0 0.0009915846167132258 -0.0006198245682753623
6658000000.0 0.0004105630505364388 -0.0010165031999349594
6659000000.0 -0.00018439567065797746 -0.001198135199956596
6660000000.0 -0.000500132329761982 -0.0010041738860309124
6661000000.0 -0.0010376694845035672 -0.0006463360623456538
6662000000.0 -0.0011813221499323845 -4.1494491597404703e-05
6663000000.0 -0.0010758746648207307 0.0003439985739532858
6664000000.0 -0.0007211971678771079 0.0008576876134611666
6665000000.0 -0.00034799976856447756 0.0010779317235574126
6666000000.0 0.00011029022425645962 0.0009472112287767231
6667000000.0 0.0005566865438595414 0.0007771350792609155
6668000000.0 0.0009530081879347563 0.0005328479455783963
6669000000.0 0.0010787653736770153 0.000139153198688291
6670000000.0 0.0010244882432743907 -0.0004619534593075514
6671000000.0 0.0006908758077770472 -0.0008620593580417335
6672000000.0 0.00040339629049412906 -0.0010281840804964304
6673000000.0 -0.00014215553528629243 -0.0011068017920479178
6674000000.0 -0.0006406468455679715 -0.0009891013614833355
6675000000.0 -0.0010585645213723183 -0.0005207979120314121
6676000000.0 -0.0012175579322502017 -1.4061441106605344e-05
6677000000.0 -0.0012613025028258562 0.0005389570142142475
6678000000.0 -0.0009809100301936269 0.0010987260611727834
6679000000.0 -0.00025839771842584014 0.00150899903383106
6680000000.0 0.0002944582956843078 0.0014916849322617054
6681000000.0 0.0011272301198914647 0.0011720278998836875
6682000000.0 0.0016823435435071588 0.0005753420991823077
6683000000.0 0.00177371921017766 -0.00013857499288860708
6684000000.0 0.0015969504602253437 -0.0011363796656951308
6685000000.0 0.0009131284314207733 -0.0019767943304032087
6686000000.0 -2.8159631256130524e-05 -0.002331382129341364
6687000000.0 -0.0012640864588320255 -0.002014332916587591
6688000000.0 -0.002200530841946602 -0.001134295598603785
6689000000.0 -0.0027901078574359417 -5.510340633918531e-05
6690000000.0 -0.002524272073060274 0.0014625787734985352
6691000000.0 -0.0014386355178430676 0.0027543059550225735
6692000000.0 0.000516857544425875 0.003139302134513855
6693000000.0 0.0019463750068098307 0.0024260038044303656
6694000000.0 0.0029545992147177458 0.0011196773266419768
6695000000.0 0.0030909806955605745 -0.0005833465256728232
6696000000.0 0.002511510392650962 -0.0020603504963219166
6697000000.0 0.00105688301846385 -0.00307192443870008
6698000000.0 -0.0006710797315463424 -0.003223453415557742
6699000000.0 -0.002261623041704297 -0.0025019196327775717
6700000000.0 -0.0032876613549888134 -0.0010907059768214822
6701000000.0 -0.003439759835600853 0.0007420548936352134
6702000000.0 -0.0025438598822802305 0.002602464286610484
6703000000.0 -0.0007615546928718686 0.003563038306310773
6704000000.0 0.0011704269563779235 0.003382414346560836
6705000000.0 0.0028654332272708416 0.002146547194570303
6706000000.0 0.0035926762502640486 0.0003388609329704195
6707000000.0 0.002971919486299157 -0.0016467267414554954
6708000000.0 0.0015519281150773168 -0.0029433583840727806
6709000000.0 -0.00015037930279504508 -0.0031463266350328922
6710000000.0 -0.0015899842837825418 -0.002404280938208103
6711000000.0 -0.0025864439085125923 -0.0011484818533062935
6712000000.0 -0.002524478593841195 0.0003495763521641493
6713000000.0 -0.0019273532088845968 0.0015613206196576357
6714000000.0 -0.0006820964044891298 0.0021904786117374897
6715000000.0 0.00042599826701916754 0.0020253171678632498
6716000000.0 0.0013885305961593986 0.001436532591469586
6717000000.0 0.0016141427913680673 0.0004057296027895063
6718000000.0 0.001321265590377152 -0.0005298942560330033
6719000000.0 0.0007079554488882422 -0.0008602680754847825
6720000000.0 0.00014108263712842017 -0.0013229148462414742
6721000000.0 -0.0003324779390823096 -0.0007227930473163724
6722000000.0 -0.0003421313303988427 -0.0003384278097655624
6723000000.0 -0.00033547854400239885 -9.435122774448246e-05
6724000000.0 -0.00010645936708897352 -7.475255551980808e-05
6725000000.0 -9.788385796127841e-05 -0.00020799132471438497
6726000000.0 -0.00026231748051941395 -0.00038848177064210176
6727000000.0 -0.000607102585490793 -0.00041163736023008823
6728000000.0 -0.000726350350305438 0.00016781802696641535
6729000000.0 -0.0007273301016539335 0.0004265964962542057
6730000000.0 -0.0004342716420069337 0.0008962545543909073
6731000000.0 0.00014624120376538485 0.0011443734401836991
6732000000.0 0.0006031066877767444 0.0010201801778748631
6733000000.0 0.0011665566125884652 0.0004966413835063577
6734000000.0 0.0013720013666898012 -0.00020067824516445398
6735000000.0 0.0010647365124896169 -0.0008774943999014795
6736000000.0 0.0007294933893717825 -0.0012739391531795263
6737000000.0 -0.00013024338113609701 -0.0015258938074111938
6738000000.0 -0.0007326650083996356 -0.001415825099684298
6739000000.0 -0.001408250187523663 -0.0008299171458929777
6740000000.0 -0.0015874162781983614 5.404347029980272e-05
6741000000.0 -0.0017021254170686007 0.0007757145795039833
6742000000.0 -0.0010135716293007135 0.0015279812505468726
6743000000.0 -0.00018594483844935894 0.0019781209994107485
6744000000.0 0.0007708444609306753 0.0016574985347688198
6745000000.0 0.0017076187068596482 0.0011312764836475253
6746000000.0 0.002130670938640833 0.00018268647545482963
6747000000.0 0.001972951227799058 -0.0007234879885800183
6748000000.0 0.0013166031567379832 -0.0017498942324891686
6749000000.0 0.00024343046243302524 -0.0021274101454764605
6750000000.0 -0.0010165453422814608 -0.0022267834283411503
6751000000.0 -0.0018637918401509523 -0.0014386510010808706
6752000000.0 -0.0022547184489667416 -0.00025485260994173586
6753000000.0 -0.0022232397459447384 0.0010288023622706532
6754000000.0 -0.00148219452239573 0.001937679830007255
6755000000.0 -0.0003799510595854372 0.0023182241711765528
6756000000.0 0.0009483092580921948 0.002147558145225048
6757000000.0 0.0020521997939795256 0.0015050945803523064
6758000000.0 0.0023144129663705826 0.0004717877018265426
6759000000.0 0.0022299736738204956 -0.0007423729985021055
6760000000.0 0.0014495912473648787 -0.0018854942172765732
6761000000.0 0.0005490918410941958 -0.002167799510061741
6762000000.0 -0.0007384609198197722 -0.0021740400698035955
6763000000.0 -0.0016936783213168383 -0.0014972316566854715
6764000000.0 -0.0021886713802814484 -0.000519738532602787
6765000000.0 -0.002206441480666399 0.00039479395491071045
6766000000.0 -0.0018108256626874208 0.0015746209537610412
6767000000.0 -0.0007573710172437131 0.0020787708926945925
6768000000.0 0.00036836566869169474 0.002254829043522477
6769000000.0 0.0013601831160485744 0.0017111445777118206
6770000000.0 0.0019422300392761827 0.0008125770837068558
6771000000.0 0.0022805959451943636 -7.017640018602833e-05
6772000000.0 0.0019648231100291014 -0.0013279831036925316
6773000000.0 0.0009649449493736029 -0.0018772962503135204
6774000000.0 -1.6658013919368386e-05 -0.0021964125335216522
6775000000.0 -0.0010307981865480542 -0.001991737401112914
6776000000.0 -0.001777490833774209 -0.0011838132049888372
6777000000.0 -0.0022378757130354643 -5.680668618879281e-05
6778000000.0 -0.001985560404136777 0.0009990406688302755
6779000000.0 -0.0014127925969660282 0.0015542128821834922
6780000000.0 -0.0004094517498742789 0.0021029061172157526
6781000000.0 0.0007274453528225422 0.0019635551143437624
6782000000.0 0.0015699713258072734 0.001447517890483141
6783000000.0 0.0020786570385098457 0.0005694529390893877
6784000000.0 0.0020651754457503557 -0.0003179768391419202
6785000000.0 0.001675482140854001 -0.0011567139299586415
6786000000.0 0.0010226740268990397 -0.00206757546402514
6787000000.0 -0.00019959999190177768 -0.002432985929772258
6788000000.0 -0.0013919840566813946 -0.002054221462458372
6789000000.0 -0.002392970724031329 -0.0011390894651412964
6790000000.0 -0.0026503729168325663 0.00018091013771481812
6791000000.0 -0.0023634028621017933 0.0015246859984472394
6792000000.0 -0.001121140900067985 0.0027035123202949762
6793000000.0 0.0003065686905756593 0.0029412228614091873
6794000000.0 0.0018455100944265723 0.0023462441749870777
6795000000.0 0.0027319411747157574 0.0010816969443112612
6796000000.0 0.0030507417395710945 -0.000584426277782768
6797000000.0 0.0020594163797795773 -0.002056614961475134
6798000000.0 0.0008292204583995044 -0.002796910936012864
6799000000.0 -0.0006899146246723831 -0.002794787520542741
6800000000.0 -0.0019289779011160135 -0.002001772867515683
6801000000.0 -0.00274239806458354 -0.0005399144720286131
6802000000.0 -0.0024197425227612257 0.000855489750392735
6803000000.0 -0.0018809213070198894 0.0024774428457021713
6804000000.0 -0.0003881061857100576 0.0023720788303762674
6805000000.0 0.0007723676390014589 0.00227058632299304
6806000000.0 0.0016865857178345323 0.0012377549428492785
6807000000.0 0.0019296256359666586 0.00017531387857161462
6808000000.0 0.001514953444711864 -0.0007138624787330627
6809000000.0 0.0010240540141239762 -0.001338098431006074
6810000000.0 0.0001606689183972776 -0.001343160285614431
6811000000.0 -0.0004828110395465046 -0.0012550568208098412
6812000000.0 -0.0007400313043035567 -0.0009184140362776816
6813000000.0 -0.0009136339649558067 -0.00044558520312421024
6814000000.0 -0.0010245793964713812 3.680076360979001e-06
6815000000.0 -0.0010243862634524703 0.00046238221693784
6816000000.0 -0.0005158493877388537 0.0007884060614742339
6817000000.0 -7.860094774514437e-05 0.0008137543918564916
6818000000.0 3.8376707379939035e-05 0.00083621044177562
6819000000.0 0.000658102217130363 0.0008426237618550658
6820000000.0 0.0007754207472316921 0.0005370194558054209
6821000000.0 0.0010493004228919744 -1.8946178897749633e-05
6822000000.0 0.0008896245853975415 -0.00032610283233225346
6823000000.0 0.000822303700260818 -0.000686603132635355
6824000000.0 0.00037206316483207047 -0.0009641092037782073
6825000000.0 -0.00018115823331754655 -0.0011949008330702782
6826000000.0 -0.000641457736492157 -0.0009837462566792965
6827000000.0 -0.0010909551056101918 -0.0005043126293458045
6828000000.0 -0.0011683719931170344 2.661401140358066e-06
6829000000.0 -0.0010748861823230982 0.0005745870876125991
6830000000.0 -0.0005763616063632071 0.0009292626054957509
6831000000.0 -9.148786921286955e-05 0.0012423987500369549
6832000000.0 0.0005378414643928409 0.0011670347303152084
6833000000.0 0.0010946933180093765 0.0009084673365578055
6834000000.0 0.0013361864257603884 8.943073771661147e-05
6835000000.0 0.0015974430134519935 -0.0004609007155522704
6836000000.0 0.0009176817256957293 -0.0010653751669451594
6837000000.0 6.681420200038701e-05 -0.0014350941637530923
6838000000.0 -0.0005676159635186195 -0.0015123991761356592
6839000000.0 -0.0011516057420521975 -0.0009801051346585155
6840000000.0 -0.0014573365915566683 -0.0002744780504144728
6841000000.0 -0.001413040910847485 0.0003411254729144275
6842000000.0 -0.0009724037954583764 0.0011599046410992742
6843000000.0 -0.0005339544732123613 0.0014424165710806847
6844000000.0 0.0003191795840393752 0.0015873754164204001
6845000000.0 0.0010936867911368608 0.0013389820232987404
6846000000.0 0.0015633737202733755 0.0004604870337061584
6847000000.0 0.0018231013091281056 -0.00021114959963597357
6848000000.0 0.0014541246928274632 -0.0009988449746742845
6849000000.0 0.000932882190681994 -0.0015524205518886447
6850000000.0 -0.00021586254297289997 -0.001844543730840087
6851000000.0 -0.0008290004916489124 -0.0016916608437895775
6852000000.0 -0.001634535496123135 -0.0012577892048284411
6853000000.0 -0.0019011199474334717 -0.0003503649786580354
6854000000.0 -0.0020942052360624075 0.00047869604895822704
6855000000.0 -0.0016544776735827327 0.001656995853409171
6856000000.0 -0.0008014447521418333 0.0024906957987695932
6857000000.0 0.0006745629943907261 0.002727080835029483
6858000000.0 0.002231140388175845 0.0019858519081026316
6859000000.0 0.0031166623812168837 0.0004634424694813788
6860000000.0 0.0027964517939835787 -0.0014806316467002034
6861000000.0 0.001222364604473114 -0.0029275924898684025
6862000000.0 -0.0005873857880942523 -0.002677369164302945
6863000000.0 -0.0018781062681227922 -0.0016949792625382543
6864000000.0 -0.0021040395367890596 -0.00044490222353488207
6865000000.0 -0.0018221550853922963 0.0005165173788554966
6866000000.0 -0.0014077239902690053 0.0012388881295919418
6867000000.0 -0.0005323063815012574 0.001704092021100223
6868000000.0 0.0003532107803039253 0.0015529656084254384
6869000000.0 0.0010221240809187293 0.0012633255682885647
6870000000.0 0.0014942296547815204 0.0007346397615037858
6871000000.0 0.0015991954132914543 0.00017189310165122151
6872000000.0 0.0014644855400547385 -0.0006811285275034606
6873000000.0 0.0008809829596430063 -0.0011710103135555983
6874000000.0 0.00011285889922874048 -0.0015651439316570759
6875000000.0 -0.0004505271790549159 -0.0012595743173733354
6876000000.0 -0.0010595344938337803 -0.0009271990857087076
6877000000.0 -0.001484152628108859 -0.0002200605667894706
6878000000.0 -0.0012198329204693437 0.000565991853363812
6879000000.0 -0.0008070714538916945 0.0008858083747327328
6880000000.0 -0.0001802835613489151 0.0011481239926069975
6881000000.0 0.0003400596615392715 0.0012066829949617386
6882000000.0 0.0006023119203746319 0.0006030195509083569
6883000000.0 0.0006213213782757521 0.00024933082750067115
6884000000.0 0.0002409582957625389 4.352941323304549e-05
6885000000.0 0.000390059343772009 0.000285942543996498
6886000000.0 0.0007679046248085797 -0.00014798050688114017
6887000000.0 0.00022450703545473516 -0.0008994802483357489
6888000000.0 -0.0004627422022167593 -0.0009146881056949496
6889000000.0 -0.0006875445251353085 -0.0005064033903181553
6890000000.0 -0.0003038913127966225 -0.00043301170808263123
6891000000.0 -0.00042081630090251565 -0.0005873376503586769
6892000000.0 -0.0008262809715233743 -0.00025229703169316053
6893000000.0 -0.0011294921860098839 6.378767284331843e-05
6894000000.0 -0.00116851890925318 0.000893725547939539
6895000000.0 -0.0008251764811575413 0.0015135940629988909
6896000000.0 0.00010132976603927091 0.001663876697421074
6897000000.0 0.000939776364248246 0.0014383692760020494
6898000000.0 0.0016577619826421142 0.0008172254310920835
6899000000.0 0.0020068043377250433 -8.174762479029596e-05
6900000000.0 0.0015280349180102348 -0.0011034285416826606
6901000000.0 0.0008550842176191509 -0.0018886117031797767
6902000000.0 -6.121757178334519e-05 -0.0021529500372707844
6903000000.0 -0.001257553813047707 -0.0016040835762396455
6904000000.0 -0.0020397729240357876 -0.001037382404319942
6905000000.0 -0.002067101886495948 5.359941042115679e-06
6906000000.0 -0.0019287343602627516 0.0009361132397316396
6907000000.0 -0.0014285295037552714 0.0017785882810130715
6908000000.0 -0.0006592023419216275 0.002345741493627429
6909000000.0 0.0006854226812720299 0.002491732593625784
6910000000.0 0.001905529759824276 0.0018452084623277187
6911000000.0 0.002851692494004965 0.0007831340772099793
6912000000.0 0.0031674904748797417 -0.0007295880932360888
6913000000.0 0.0023891013115644455 -0.0021404072176665068
6914000000.0 0.0011636092094704509 -0.003397206077352166
6915000000.0 -0.0008354177116416395 -0.003672808175906539
6916000000.0 -0.0025473388377577066 -0.0030156606808304787
6917000000.0 -0.0039392150938510895 -0.001060805399902165
6918000000.0 -0.004010432865470648 0.0010451311245560646
6919000000.0 -0.0029461930971592665 0.0030849981121718884
6920000000.0 -0.0008624080219306052 0.004070766270160675
6921000000.0 0.0012570347171276808 0.003850692417472601
6922000000.0 0.0027323062531650066 0.0028649584855884314
6923000000.0 0.006197198294103146 -1.83860793185886e-05
6924000000.0 0.005753322970122099 -0.000942088954616338
6925000000.0 0.002588426461443305 -0.003070112317800522
6926000000.0 0.001071150996722281 -0.003780977101996541
6927000000.0 -0.0008120654965750873 -0.004063662141561508
6928000000.0 -0.0027670639101415873 -0.003247031942009926
6929000000.0 -0.004197767004370689 -0.001684074173681438
6930000000.0 -0.004623336251825094 0.000888282957021147
6931000000.0 -0.003518020501360297 0.0030102087184786797
6932000000.0 -0.001692801946774125 0.004565808922052383
6933000000.0 0.0008510422194376588 0.004726681392639875
6934000000.0 0.003189310198649764 0.0037790117785334587
6935000000.0 0.004365304484963417 0.0024006476160138845
6936000000.0 0.0049455659464001656 -0.0009252158342860639
6937000000.0 0.0037939390167593956 -0.003179179271683097
6938000000.0 0.0016849430976435542 -0.0042676436714828014
6939000000.0 -0.00030098253046162426 -0.0047733234241604805
6940000000.0 -0.0026808693073689938 -0.004172523505985737
6941000000.0 -0.004355210345238447 -0.0026101248804479837
6942000000.0 -0.005167043302208185 -0.0005661425529979169
6943000000.0 -0.004968723747879267 0.0019922133069485426
6944000000.0 -0.0036235563457012177 0.004413628485053778
6945000000.0 -0.001232849550433457 0.005814389791339636
6946000000.0 0.0018122526817023754 0.005822003353387117
6947000000.0 0.0043798224069178104 0.004697077441960573
6948000000.0 0.006339298095554113 0.0021519544534385204
6949000000.0 0.007010186091065407 -0.001333254505880177
6950000000.0 0.006028576288372278 -0.004820262547582388
6951000000.0 0.003337982576340437 -0.007506013847887516
6952000000.0 -0.0007137125357985497 -0.009181191213428974
6953000000.0 -0.005255131982266903 -0.00879546720534563
6954000000.0 -0.010095439851284027 -0.005905429366976023
6955000000.0 -0.013797210529446602 -0.0012476469855755568
6956000000.0 -0.017286861315369606 0.007229790091514587
6957000000.0 -0.017225472256541252 0.027950624004006386
6958000000.0 0.0247650183737278 0.0357685424387455
6959000000.0 0.043962761759757996 0.001798930810764432
6960000000.0 0.025869213044643402 -0.03441659361124039
6961000000.0 -0.016599785536527634 -0.01839357800781727
6962000000.0 -0.01198491733521223 -0.0038626017048954964
6963000000.0 -0.008438656106591225 0.0012349884491413832
6964000000.0 -0.005279025994241238 0.003425412345677614
6965000000.0 -0.002910322044044733 0.004162562545388937
6966000000.0 -0.0008253647829405963 0.00399750517681241
6967000000.0 0.0005288298707455397 0.003204610198736191
6968000000.0 0.0012847280595451593 0.0022486986126750708
6969000000.0 0.0019469662802293897 0.001340665970928967
6970000000.0 0.0018561697797849774 0.00042756510083563626
6971000000.0 0.0018446759786456823 -0.00010644835128914565
6972000000.0 0.0015838745748624206 -0.0005677770241163671
6973000000.0 0.0011868857545778155 -0.0008883830159902573
6974000000.0 0.0009384950972162187 -0.001146578462794423
6975000000.0 0.0003623254888225347 -0.0015893843956291676
6976000000.0 -0.00017324725922662765 -0.0016692023491486907
6977000000.0 -0.000917986617423594 -0.001668293378315866
6978000000.0 -0.0018171073170378804 -0.0011642971076071262
6979000000.0 -0.001949677593074739 -0.00013370398664847016
6980000000.0 -0.0018450662028044462 0.0009040344157256186
6981000000.0 -0.0015335127245634794 0.0013458197936415672
6982000000.0 -0.0008429856388829648 0.0018302190583199263
6983000000.0 4.950468337483471e-07 0.0021573363337665796
6984000000.0 0.0009225207613781095 0.002131636720150709
6985000000.0 0.001982312183827162 0.0015238919295370579
6986000000.0 0.002388214459642768 0.0006385364686138928
6987000000.0 0.0026449726428836584 -0.0005050657782703638
6988000000.0 0.0023436446208506823 -0.0017081184778362513
6989000000.0 0.0015793067868798971 -0.0028601251542568207
6990000000.0 0.00011193064710823819 -0.0036468312609940767
6991000000.0 -0.001903882366605103 -0.00353195215575397
6992000000.0 -0.0035282839089632034 -0.0023518677335232496
6993000000.0 -0.004785569384694099 -0.0004008607938885689
6994000000.0 -0.004652025178074837 0.0022248923778533936
6995000000.0 -0.0038661793805658817 0.004606162663549185
6996000000.0 -0.00011607326450757682 0.006621833890676498
6997000000.0 0.003988731652498245 0.005662395618855953
6998000000.0 0.0065702046267688274 0.0024459678679704666
6999000000.0 0.006830449681729078 -0.0018330521415919065
7000000000.0 0.004699326120316982 -0.005381230730563402
