! Created with skrf 1.10.0 (http://scikit-rf.org).
# Hz S RI R 50.0 
!freq ReS11 ImS11
!
6000000000.0 0.000878933584317565 -7.012597779976204e-05
6001000000.0 0.0006782949203625321 -0.00036033414653502405
6002000000.0 0.0004888104740530252 -0.0006800262490287423
6003000000.0 4.940177677781321e-05 -0.000690053275320679
6004000000.0 -0.00027429129113443196 -0.0007007759413681924
6005000000.0 -0.0005209347000345588 -0.0006309333839453757
6006000000.0 -0.0007355577545240521 -0.0001784723426681012
6007000000.0 -0.000673673814162612 0.00013614016643259674
6008000000.0 -0.0007176497019827366 0.00028436200227588415
6009000000.0 -0.0002335331664653495 0.0007563543040305376
6010000000.0 0.00013203754497226328 0.0008699925965629518
6011000000.0 0.0004931585863232613 0.0006781234405934811
6012000000.0 0.0005364604294300079 0.00028069113614037633
6013000000.0 0.0007171970792114735 6.505133933387697e-05
6014000000.0 0.0006903511239215732 -0.00041217042598873377
6015000000.0 0.00048327978583984077 -0.0005313722067512572
6016000000.0 4.501753210206516e-05 -0.0007251971983350813
6017000000.0 -0.000332753115799278 -0.0005851841997355223
6018000000.0 -0.0005346901016309857 -0.0004918767954222858
6019000000.0 -0.0006485646590590477 -0.00011091891792602837
6020000000.0 -0.0005840878584422171 0.00019103341037407517
6021000000.0 -0.0006428154883906245 0.0005922330892644823
6022000000.0 -0.0002102764556184411 0.000673798203933984
6023000000.0 1.0227355232927948e-05 0.000846239912789315
6024000000.0 0.0003395547391846776 0.0006588753894902766
6025000000.0 0.0004154430062044412 0.0004159140517003834
6026000000.0 0.0007312988745979965 -3.520754398778081e-05
6027000000.0 0.0005811601877212524 -0.00027078817947767675
6028000000.0 0.00029277708381414413 -0.0005519265541806817
6029000000.0 7.742188245174475e-06 -0.0005867597064934671
6030000000.0 -0.0003298628143966198 -0.0007686426979489625
6031000000.0 -0.0005198691505938768 -0.00035586635931394994
6032000000.0 -0.0005634225672110915 -0.00021548799122683704
6033000000.0 -0.0008080218103714287 6.240417860681191e-05
6034000000.0 -0.0005626961356028914 0.0004418447788339108
6035000000.0 -0.0002363749808864668 0.0005907395971007645
6036000000.0 4.0434711991110817e-05 0.0006663118838332593
6037000000.0 0.0004328643553890288 0.0006853117956779897
6038000000.0 0.0006207379046827555 0.00026815588353201747
6039000000.0 0.0006709761219099164 6.257962377276272e-05
6040000000.0 0.000648680841550231 -0.00019455244182609022
6041000000.0 0.0005335502210073173 -0.00057143101003021
6042000000.0 0.00021023621957283467 -0.0005718410830013454
6043000000.0 -0.0002477891102898866 -0.0006454992690123618
6044000000.0 -0.00041562767000868917 -0.0005458773812279105
6045000000.0 -0.0006576175801455975 -0.0002671043330337852
6046000000.0 -0.000772347382735461 0.00015795086801517755
6047000000.0 -0.0006067975191399455 0.00021009058400522918
6048000000.0 -0.0004107882850803435 0.0005655817803926766
6049000000.0 -2.5253615604015067e-05 0.0007563302060589194
6050000000.0 0.0004043258086312562 0.0006147772073745728
6051000000.0 0.000570612377487123 0.0004737645504064858
6052000000.0 0.0008004785049706697 7.015912160568405e-06
6053000000.0 0.0005692702834494412 -0.00022505869856104255
6054000000.0 0.0004626278532668948 -0.000529938843101263
6055000000.0 8.925215661292896e-05 -0.0006704108091071248
6056000000.0 -0.00016436527948826551 -0.0007592892507091165
6057000000.0 -0.0005034180940128863 -0.0003977339656557888
6058000000.0 -0.0006188456900417805 -0.00022312263899948448
6059000000.0 -0.0006345934816636145 0.00014663288311567158
6060000000.0 -0.00047417121822945774 0.0005145005416125059
6061000000.0 -0.00042462634155526757 0.0007521382067352533
6062000000.0 2.528470940887928e-05 0.0007359700975939631
6063000000.0 0.0003194906166754663 0.0006702754180878401
6064000000.0 0.000650993490125984 0.00032854703022167087
6065000000.0 0.0006972482660785317 1.4730085240444168e-05
6066000000.0 0.0004095259355381131 -0.0002628458314575255
6067000000.0 0.0005002611433155835 -0.0005972887738607824
6068000000.0 0.00011124504817416891 -0.0006842046277597547
6069000000.0 -4.692535731010139e-05 -0.0007153344340622425
6070000000.0 -0.0005880293902009726 -0.0004532220773398876
6071000000.0 -0.0007014579605311155 -7.689624180784449e-05
6072000000.0 -0.0005347641417756677 0.0002146920160157606
6073000000.0 -0.0005267756641842425 0.0005509195034392178
6074000000.0 -0.0004370739625301212 0.0006315895589068532
6075000000.0 0.0002054928772849962 0.00048782085650600493
6076000000.0 0.000415959395468235 0.0007133116596378386
6077000000.0 0.0004531612794380635 0.00042026324081234634
6078000000.0 0.0007055644528008997 0.00019285055168438703
6079000000.0 0.0006033253157511353 -0.00026231937226839364
6080000000.0 0.00039587891660630703 -0.0006079964805394411
6081000000.0 0.00021930619550403208 -0.0006514590349979699
6082000000.0 -0.00015713290486019105 -0.000614395656157285
6083000000.0 -0.0005055660731159151 -0.000455307075753808
6084000000.0 -0.0006717446376569569 -0.0003196324105374515
6085000000.0 -0.0006928884540684521 7.094092870829627e-05
6086000000.0 -0.0005117138498462737 0.00036445888690650463
6087000000.0 -0.0003675447078421712 0.0004846458323299885
6088000000.0 -2.8101838324801065e-05 0.0006088074878789485
6089000000.0 0.0001859796029748395 0.0006294474587775767
6090000000.0 0.000544084410648793 0.00023470363521482795
6091000000.0 0.000583963468670845 0.00027205070364288986
6092000000.0 0.0007799795712344348 -6.0075026340200566e-06
6093000000.0 0.00026938653900288045 -0.000418048701249063
6094000000.0 0.0003014256653841585 -0.0003964830539189279
6095000000.0 -9.139351459452882e-05 -0.0005278047174215317
6096000000.0 -0.0003118120366707444 -0.0004541200469247997
6097000000.0 -0.0003523522464092821 -0.00018157807062380016
6098000000.0 -0.0007957016350701451 7.089935388648883e-05
6099000000.0 -0.00043463610927574337 0.00034415506524965167
6100000000.0 -8.212699322029948e-05 0.0004421787743922323
6101000000.0 0.00015983158664312214 0.0004742839955724776
6102000000.0 0.00018868733604904264 0.0005947189056314528
6103000000.0 0.00043360950076021254 0.0003556390875019133
6104000000.0 0.0005783175001852214 0.0002814338367898017
6105000000.0 0.0005789587739855051 -0.0004340889281593263
6106000000.0 0.0005221894825808704 -0.0005739182815887034
6107000000.0 0.00012712123862002045 -0.0006963485502637923
6108000000.0 -4.4411353883333504e-05 -0.0003929194645024836
6109000000.0 -0.00033346243435516953 -0.0004446397942956537
6110000000.0 -0.0005270671681500971 -0.0002829528821166605
6111000000.0 -0.0008137597469612956 0.00012743572006002069
6112000000.0 -0.0005721763009205461 0.00045378750655800104
6113000000.0 -0.00045153763494454324 0.0003622318909037858
6114000000.0 1.297481867368333e-05 0.0006377993850037456
6115000000.0 0.0004263891314622015 0.0007649412145838141
6116000000.0 0.0005331533029675484 0.0004695323295891285
6117000000.0 0.0008272228296846151 0.00017737658345140517
6118000000.0 0.0004939504433423281 -0.00040252887993119657
6119000000.0 0.0004665244196075946 -0.0005732861463911831
6120000000.0 1.4189280364007573e-06 -0.000546320981811732
6121000000.0 -1.053285723173758e-05 -0.00046330748591572046
6122000000.0 -0.0002750834100879729 -0.0007202059496194124
6123000000.0 -0.0005520574050024152 -0.0004072850861120969
6124000000.0 -0.0005641952157020569 -0.0001375077263219282
6125000000.0 -0.0006628296105191112 0.00023536989465355873
6126000000.0 1.3489375305653084e-05 0.000652820395771414
6127000000.0 -0.00015764978888910264 0.0007490683346986771
6128000000.0 0.0003494348202366382 0.0006266566342674196
6129000000.0 0.0006204282399266958 0.000373055983800441
6130000000.0 0.000732719199731946 0.00015263604291249067
6131000000.0 0.0008100655395537615 -2.8941665732418187e-05
6132000000.0 0.0003710686578415334 -0.0004950240254402161
6133000000.0 0.00021438440307974815 -0.0004532665479928255
6134000000.0 -0.00033514242386445403 -0.0005679685855284333
6135000000.0 -0.0006169498083181679 -0.0002726230304688215
6136000000.0 -0.000719752162694931 -0.000129045540234074
6137000000.0 -0.0006675588083453476 9.257300916942768e-06
6138000000.0 -0.0004899391788057983 0.00022315052046906203
6139000000.0 -0.00015076524869073182 0.0004511538427323103
6140000000.0 -2.722687531786505e-05 0.0008926201262511313
6141000000.0 0.0003053749678656459 0.0005755468155257404
6142000000.0 0.0004010700504295528 0.00035768019733950496
6143000000.0 0.0006656775367446244 -0.00012108268128940836
6144000000.0 0.0004600034444592893 -0.00035786713124252856
6145000000.0 0.00046899347216822207 -0.0004260263522155583
6146000000.0 0.00017048481095116585 -0.0007799587328918278
6147000000.0 -0.0001730669755488634 -0.0006344716530293226
6148000000.0 -0.0004716785333584994 -0.0006594964070245624
6149000000.0 -0.0004954000469297171 -0.00012076859275111929
6150000000.0 -0.0007343772449530661 7.456753792212112e-06
6151000000.0 -0.00035833872971124947 0.0003984280047006905
6152000000.0 -0.00029336163424886763 0.0006918993894942105
6153000000.0 -4.5684508222620934e-05 0.0008734550792723894
6154000000.0 0.00019883603090420365 0.0005443396512418985
6155000000.0 0.0006351110059767962 0.00025241225375793874
6156000000.0 0.0006440303404815495 -0.00010304874740540981
6157000000.0 0.0005737859173677862 -0.00020449591102078557
6158000000.0 0.0004362193285487592 -0.0005614834954030812
6159000000.0 0.00013751658843830228 -0.0007246424211189151
6160000000.0 -0.00010121848026756197 -0.00051635637646541
6161000000.0 -0.0004501069779507816 -0.0006213136366568506
6162000000.0 -0.0006840431597083807 -0.0001819499593693763
6163000000.0 -0.0008959980914369226 2.4750039301579818e-05
6164000000.0 -0.000511062447912991 0.0005223241751082242
6165000000.0 -0.00012070064258296043 0.0006756301154382527
6166000000.0 3.03688102576416e-05 0.0007815574645064771
6167000000.0 0.0003268636064603925 0.0006258281064219773
6168000000.0 0.0005309311090968549 0.00036416391958482563
6169000000.0 0.0006495341076515615 0.0001366437500109896
6170000000.0 0.0006060344749130309 -0.00026185301248915493
6171000000.0 0.00039765110705047846 -0.0005574821843765676
6172000000.0 0.00012453059025574476 -0.000673761940561235
6173000000.0 -0.0003125588409602642 -0.0006512348772957921
6174000000.0 -0.0004429768305271864 -0.0004385660868138075
6175000000.0 -0.0005077589303255081 -0.0003431831719353795
6176000000.0 -0.0008440804667770863 0.00011290699330857024
6177000000.0 -0.0006895965780131519 0.0004942392697557807
6178000000.0 -0.0003496873250696808 0.0005871953326277435
6179000000.0 0.00010170140012633055 0.0007546936394646764
6180000000.0 0.00031583543750457466 0.000613710843026638
6181000000.0 0.0005849229637533426 0.000419057032559067
6182000000.0 0.0007574384799227118 -7.359766459558159e-05
6183000000.0 0.000550878350622952 3.497345824143849e-05
6184000000.0 0.00040616298792883754 -0.0004959117504768074
6185000000.0 0.0001029854902299121 -0.0006338692619465292
6186000000.0 -0.00020076370856259018 -0.0006837424589321017
6187000000.0 -0.0005391453159973025 -0.00046510776155628264
6188000000.0 -0.0006372108473442495 -0.00019093982700724155
6189000000.0 -0.0007387636578641832 0.00022597111819777638
6190000000.0 -0.00043176088365726173 0.0005339927156455815
6191000000.0 -0.0004193575296085328 0.0007938313065096736
6192000000.0 5.869503365829587e-05 0.0008313792059198022
6193000000.0 0.0004443376965355128 0.0007302252342924476
6194000000.0 0.0006815778324380517 0.0003006932674907148
6195000000.0 0.0008578584529459476 3.6164283301332034e-07
6196000000.0 0.0007473452133126557 -0.00035843916703015566
6197000000.0 0.00033891844213940203 -0.0007260928978212178
6198000000.0 5.056996815255843e-05 -0.0008122180588543415
6199000000.0 -0.0004483023949433118 -0.0007580319652333856
6200000000.0 -0.0005497319507412612 -0.00025333918165415525
6201000000.0 -0.0007328782812692225 -0.00021588319214060903
6202000000.0 -0.0009261788218282163 0.0002812365419231355
6203000000.0 -0.0005274915602058172 0.0005661204340867698
6204000000.0 -5.278829485177994e-05 0.0007598674856126308
6205000000.0 0.00030036995303817093 0.0008519630064256489
6206000000.0 0.0006186081445775926 0.0005814299802295864
6207000000.0 0.0008312521385960281 0.00024359283270314336
6208000000.0 0.000693288107868284 -8.821284427540377e-05
6209000000.0 0.0005212004762142897 -0.0005093775107525289
6210000000.0 0.00021453895897138864 -0.0007122619426809251
6211000000.0 7.707159966230392e-06 -0.0006278300425037742
6212000000.0 -0.0003627118712756783 -0.0006759957759641111
6213000000.0 -0.0008173204842023551 -0.00040708243614062667
6214000000.0 -0.0007182248518802226 0.00014225584163796157
6215000000.0 -0.0006536096334457397 0.0003378906403668225
6216000000.0 -0.00046508503146469593 0.0005672264378517866
6217000000.0 -0.0001751728414092213 0.0007130102603696287
6218000000.0 0.00015610596165060997 0.0007344414480030537
6219000000.0 0.0005615545087493956 0.00043796669342555106
6220000000.0 0.0007390777464024723 -5.806176704936661e-05
6221000000.0 0.0007140808738768101 -0.00023814204905647784
6222000000.0 0.0005153662641532719 -0.0003328617021907121
6223000000.0 0.00020110358309466392 -0.0005413459148257971
6224000000.0 -0.0002566254115663469 -0.000761764298658818
6225000000.0 -0.00033599877497181296 -0.0005248557426966727
6226000000.0 -0.0007679085829295218 -0.00028668681625276804
6227000000.0 -0.0007548738503828645 -6.09666203672532e-05
6228000000.0 -0.0006250182632356882 0.0003375727101229131
6229000000.0 -9.011094516608864e-05 0.0005083652213215828
6230000000.0 -0.00013904103252571076 0.0006912510143592954
6231000000.0 0.00019846140639856458 0.0005112363724038005
6232000000.0 0.000573313795030117 0.00029761079349555075
6233000000.0 0.0005614107358269393 -9.456233783566859e-06
6234000000.0 0.0005916673108004034 -5.592397428699769e-05
6235000000.0 0.0002850803721230477 -0.0003845597093459219
6236000000.0 0.00012306988355703652 -0.0005448939045891166
6237000000.0 -0.00020641228184103966 -0.0004174256173428148
6238000000.0 -0.00013387762010097504 -0.000491792568936944
6239000000.0 -0.0006294605555012822 -0.00033426075242459774
6240000000.0 -0.0005983331357128918 0.00015587166126351804
6241000000.0 -0.00028240139363333583 0.00018235422612633556
6242000000.0 -0.00034342624712735415 0.0004160241223871708
6243000000.0 -7.050537533359602e-05 0.0005501532577909529
6244000000.0 3.303553239675239e-05 0.0005337866605259478
6245000000.0 0.0002961555728688836 0.0003162715584039688
6246000000.0 0.0005324177909642458 0.0001052529041771777
6247000000.0 0.0005561083671636879 1.751805393723771e-05
6248000000.0 0.0005461056134663522 -0.00038934405893087387
6249000000.0 0.0003073385450989008 -0.0005322675569914281
6250000000.0 -5.2475446864264086e-05 -0.0006600844208151102
6251000000.0 -0.00025632453616708517 -0.00036905211163684726
6252000000.0 -0.0003136707528028637 -0.00019339665595907718
6253000000.0 -0.0006528304074890912 -0.00010054963058792055
6254000000.0 -0.00026485114358365536 6.901750020915642e-05
6255000000.0 -0.0002921593259088695 0.00024139328161254525
6256000000.0 -0.00024352296895813197 0.0005945602315478027
6257000000.0 3.833094160654582e-05 0.0007135432097129524
6258000000.0 0.0004749950021505356 0.0005109441699460149
6259000000.0 0.0004923888482153416 0.0002939774130936712
6260000000.0 0.0007303220336325467 -6.851926445960999e-05
6261000000.0 0.000445263838628307 -0.00041049945866689086
6262000000.0 0.00021916029800195247 -0.000493452709633857
6263000000.0 5.8186386013403535e-05 -0.00065470120171085
6264000000.0 -9.535379649605602e-05 -0.0003788116737268865
6265000000.0 -0.0004784400516655296 -0.0005017860094085336
6266000000.0 -0.0005565930041484535 -0.0003723659028764814
6267000000.0 -0.00069167569745332 7.946521509438753e-05
6268000000.0 -0.0004920498467981815 0.0004582424589898437
6269000000.0 -0.0002968890476040542 0.0005304283113218844
6270000000.0 -6.731786561431363e-05 0.0006890182849019766
6271000000.0 0.00024447019677609205 0.0004843061906285584
6272000000.0 0.0005528638721443713 0.00043107799137942493
6273000000.0 0.0004699046548921615 0.00010785963240778074
6274000000.0 0.0005868505104444921 -0.0003131512785330415
6275000000.0 0.00044699013233184814 -0.0003990209079347551
6276000000.0 0.00014173069212120026 -0.0006512636900879443
6277000000.0 -0.000165305333212018 -0.0008714885916560888
6278000000.0 -0.0004383038030937314 -0.0005058060633018613
6279000000.0 -0.0008591418736614287 -0.0003297824296168983
6280000000.0 -0.0009528255905024707 0.00012871975195594132
6281000000.0 -0.0007429199176840484 0.0005234868731349707
6282000000.0 -0.0004456334572751075 0.0007299104472622275
6283000000.0 1.6054333400461474e-06 0.0009342500707134604
6284000000.0 0.00047299492871388793 0.0008493351051583886
6285000000.0 0.0008567172335460782 0.0005901712574996054
6286000000.0 0.0008039382519200444 -6.547134944412392e-06
6287000000.0 0.0009188669500872493 -0.00046563491923734546
6288000000.0 0.0006168520194478333 -0.0008436306961812079
6289000000.0 -6.0797327023465186e-05 -0.0010417448356747627
6290000000.0 -0.00032647961052134633 -0.0009729265002533793
6291000000.0 -0.0007651126361452043 -0.0007891756249591708
6292000000.0 -0.0009937124559655786 -0.0001214073272421956
6293000000.0 -0.0011012261966243386 0.0003712581528816372
6294000000.0 -0.0006901756278239191 0.0008267670636996627
6295000000.0 -0.00012994139979127795 0.0008949432522058487
6296000000.0 0.0003529391542542726 0.001090225763618946
6297000000.0 0.0007654355140402913 0.0007135826162993908
6298000000.0 0.0009707800927571952 0.000259815133176744
6299000000.0 0.0008510257466696203 -0.00028672596090473235
6300000000.0 0.0007756091072224081 -0.0006160272168926895
6301000000.0 0.00039982207817956805 -0.0009576893644407392
6302000000.0 -0.00011108146281912923 -0.0009668127750046551
6303000000.0 -0.0005741835338994861 -0.0008970703347586095
6304000000.0 -0.000969410059042275 -0.0003731562464963645
6305000000.0 -0.0011252695694565773 9.245207365893293e-06
6306000000.0 -0.0006702382233925164 0.0004868405230809003
6307000000.0 -0.0004519446229096502 0.0010106675326824188
6308000000.0 8.176112169167027e-05 0.0009804614819586277
6309000000.0 0.0004839790635742247 0.0010296694235876203
6310000000.0 0.0007675018277950585 0.00059132045134902
6311000000.0 0.0010738493874669075 4.9766120355343446e-05
6312000000.0 0.0009490230004303157 -0.0003644267562776804
6313000000.0 0.0005571701913140714 -0.0008901956607587636
6314000000.0 1.711261211312376e-05 -0.0009476047125644982
6315000000.0 -0.00033442408312112093 -0.0010261012939736247
6316000000.0 -0.0007117862114682794 -0.0005280066397972405
6317000000.0 -0.0010439050383865833 -0.0002589797950349748
6318000000.0 -0.0010637686355039477 0.00024494295939803123
6319000000.0 -0.0007085612160153687 0.0006187492981553078
6320000000.0 -0.0002222628827439621 0.0009049403597600758
6321000000.0 0.00023147514730226249 0.0010918655898422003
6322000000.0 0.000522579241078347 0.0006806023884564638
6323000000.0 0.0008895952487364411 0.00042113993549719453
6324000000.0 0.001031538238748908 -8.681322651682422e-05
6325000000.0 0.0008445289568044245 -0.00043466570787131786
6326000000.0 0.0005238938611000776 -0.0007507631671614945
6327000000.0 -3.0641560442745686e-05 -0.0008377500344067812
6328000000.0 -0.00047662408906035125 -0.0007949572172947228
6329000000.0 -0.000732880609575659 -0.0005431093741208315
6330000000.0 -0.000881322892382741 -9.515557758277282e-05
6331000000.0 -0.0007400769973173738 0.00029195862589403987
6332000000.0 -0.000602755811996758 0.0006248604040592909
6333000000.0 -0.00018302668468095362 0.0009224145906046033
6334000000.0 0.00015617864846717566 0.0008967419853433967
6335000000.0 0.0005730471457354724 0.000636349490378052
6336000000.0 0.0006764623103663325 0.00011128203186672181
6337000000.0 0.0007951169973239303 -0.00013827467046212405
6338000000.0 0.0005094742518849671 -0.0004768029903061688
6339000000.0 0.0004116443160455674 -0.0007201381376944482
6340000000.0 -4.623105996870436e-05 -0.0006721059326082468
6341000000.0 -0.00026196829276159406 -0.000601818086579442
6342000000.0 -0.000687710358761251 -0.00039704408845864236
6343000000.0 -0.0007223416469059885 -2.2015667127561755e-05
6344000000.0 -0.0007124065887182951 0.00024057066184468567
6345000000.0 -0.0005301439086906612 0.00044483348028734326
6346000000.0 -0.0001612411142559722 0.0006634604651480913
6347000000.0 9.772695921128616e-05 0.0008381569641642272
6348000000.0 0.0005658487207256258 0.0005674647982232273
6349000000.0 0.0006164415390230715 0.00026646567857824266
6350000000.0 0.0007753820973448455 -5.895260255783796e-05
6351000000.0 0.0005797966150566936 -0.0004639104299712926
6352000000.0 0.0004145807179156691 -0.0007288393680937588
6353000000.0 -2.7348993171472102e-05 -0.0007259123958647251
6354000000.0 -0.0002609513758216053 -0.0007491547148674726
6355000000.0 -0.0005979202105663717 -0.0004625375149771571
6356000000.0 -0.0006161273340694606 -3.753480268642306e-05
6357000000.0 -0.0006260654772631824 0.00022010992688592523
6358000000.0 -0.0005560204735957086 0.0005493037169799209
6359000000.0 -0.00012710265582427382 0.0006387272733263671
6360000000.0 -2.6179803171544336e-05 0.000735699140932411
6361000000.0 0.00043500744504854083 0.0006864273454993963
6362000000.0 0.0007346763741225004 0.0003289302985649556
6363000000.0 0.0006775444489903748 3.818358527496457e-05
6364000000.0 0.0006317734951153398 -0.00032519828528165817
6365000000.0 0.0004421238845679909 -0.0005844698753207922
6366000000.0 0.00016512513684574515 -0.0006890594959259033
6367000000.0 -0.0002627501089591533 -0.0006758670206181705
6368000000.0 -0.0005281171179376543 -0.0004932520678266883
6369000000.0 -0.0007337708375416696 -9.235356992576271e-05
6370000000.0 -0.0007320469012483954 0.00013056621537543833
6371000000.0 -0.0005023082485422492 0.000462939846329391
6372000000.0 -0.0002127980551449582 0.0007561041857115924
6373000000.0 4.735135371447541e-05 0.0006708111031912267
6374000000.0 0.0003860782890114933 0.0006498508155345917
6375000000.0 0.0005385513068176806 0.00041770091047510505
6376000000.0 0.0008509197505190969 3.5760222090175375e-05
6377000000.0 0.0006755522335879505 -0.0002570172946434468
6378000000.0 0.0005894717178307474 -0.0005701748305000365
6379000000.0 9.939224401023239e-05 -0.0008566213073208928
6380000000.0 -0.00020203384337946773 -0.0006325041758827865
6381000000.0 -0.0005744675290770829 -0.0005508438334800303
6382000000.0 -0.0007977475179359317 -0.00018066746997646987
6383000000.0 -0.0007004162762314081 0.00018573393754195422
6384000000.0 -0.0005549754132516682 0.0004167301522102207
6385000000.0 -0.0004098449135199189 0.0005514445365406573
6386000000.0 3.127512172795832e-05 0.0007459163898602128
6387000000.0 0.00020961220434401184 0.0005888114683330059
6388000000.0 0.0006827599136158824 0.0002976153919007629
6389000000.0 0.0008186632767319679 -2.5511202693451196e-05
6390000000.0 0.0007018796168267727 -0.0002841625828295946
6391000000.0 0.0005079538677819073 -0.0005963165313005447
6392000000.0 0.00015141309995669872 -0.0007528906571678817
6393000000.0 -0.0002672692062333226 -0.0006958150188438594
6394000000.0 -0.0005367370322346687 -0.0005642761825583875
6395000000.0 -0.0006616177852265537 -0.00018112162069883198
6396000000.0 -0.0007699944544583559 0.00016504904488101602
6397000000.0 -0.0006111629772931337 0.0005309526459313929
6398000000.0 -0.00015910156071186066 0.0007224617293104529
6399000000.0 6.040064545231871e-05 0.000858269864693284
6400000000.0 0.0004353980184532702 0.000751049374230206
6401000000.0 0.0007573164184577763 0.0003237331984564662
6402000000.0 0.0008214873960241675 1.5625442756572738e-05
6403000000.0 0.0005803251988254488 -0.0003138346946798265
6404000000.0 0.00040178876952268183 -0.0006654705503024161
6405000000.0 -2.385043444519397e-05 -0.0008720536716282368
6406000000.0 -0.0002513836370781064 -0.000782259099651128
6407000000.0 -0.000551265780813992 -0.0005513026844710112
6408000000.0 -0.0007233826909214258 -0.0001127347131841816
6409000000.0 -0.0007357052527368069 0.0001572721084812656
6410000000.0 -0.0005979585694149137 0.0004040301137138158
6411000000.0 -0.00023957046505529433 0.0006498076254501939
6412000000.0 0.00017389583808835596 0.00063980498816818
6413000000.0 0.0003793082432821393 0.000707440369296819
6414000000.0 0.0005323714576661587 0.000448874692665413
6415000000.0 0.0007517245248891413 1.5305589613490156e-06
6416000000.0 0.0007112445309758186 -0.00025110755814239383
6417000000.0 0.0005254435236565769 -0.0005449673626571894
6418000000.0 0.00020542550191748887 -0.000715480069629848
6419000000.0 -0.00021143417689017951 -0.0006291409372352064
6420000000.0 -0.00048098136903718114 -0.0005521741695702076
6421000000.0 -0.0006322745466604829 -0.00033994746627286077
6422000000.0 -0.0007326281629502773 0.00015049052308313549
6423000000.0 -0.0007060500793159008 0.00042702435166575015
6424000000.0 -0.000373095681425184 0.0006512503023259342
6425000000.0 -9.181921996059828e-06 0.0007731898222118616
6426000000.0 0.00038857688196003437 0.0007096577901393175
6427000000.0 0.0005568749038502574 0.0005227839574217796
6428000000.0 0.0008452273905277252 0.00023082928964868188
6429000000.0 0.0007261966238729656 -2.4977944121928886e-05
6430000000.0 0.0006486490019597113 -0.0005414743209257722
6431000000.0 0.0002791911247186363 -0.0008440188830718398
6432000000.0 -4.745940532302484e-05 -0.0008722947095520794
6433000000.0 -0.0005254895659163594 -0.000818512577097863
6434000000.0 -0.0009464889881201088 -0.0004594518686644733
6435000000.0 -0.0011504822177812457 -2.9975772122270428e-05
6436000000.0 -0.0011145644821226597 0.0005628042272292078
6437000000.0 -0.0005575167597271502 0.0010499671334400773
6438000000.0 -0.00019641272956505418 0.0012921961024403572
6439000000.0 0.0005950632621534169 0.0012639235937967896
6440000000.0 0.0010441105114296079 0.0007842504419386387
6441000000.0 0.0013933354057371616 0.00012844982848037034
6442000000.0 0.001248941640369594 -0.0006074256962165236
6443000000.0 0.0008753520087338984 -0.0012002711882814765
6444000000.0 0.0002152799570467323 -0.0014141462743282318
6445000000.0 -0.0005890117026865482 -0.001417280756868422
6446000000.0 -0.0011915499344468117 -0.000697363808285445
6447000000.0 -0.0014895581407472491 -0.00010084097448270768
6448000000.0 -0.001302005024626851 0.0006914122495800257
6449000000.0 -0.0006744935526512563 0.001254091621376574
6450000000.0 -2.9349052056204528e-05 0.0014646361814811826
6451000000.0 0.0005516419187188148 0.0013943444937467575
6452000000.0 0.0011045585852116346 0.0007661443669348955
6453000000.0 0.0012429297203198075 0.00021968774672131985
6454000000.0 0.0010741560254245996 -0.0005274139111861587
6455000000.0 0.0006895718397572637 -0.0008996258839033544
6456000000.0 0.00020124462025705725 -0.0011421905364841223
6457000000.0 -0.0003472610260359943 -0.0010294712847098708
6458000000.0 -0.0007479422492906451 -0.0008251250837929547
6459000000.0 -0.001099761575460434 -0.00034187670098617673
6460000000.0 -0.0010309075005352497 0.00019557274936232716
6461000000.0 -0.0008636183920316398 0.0005096306558698416
6462000000.0 -0.00036734083550982177 0.0009185511153191328
6463000000.0 -5.4002372053219005e-05 0.0010639936663210392
6464000000.0 0.0004634190408978611 0.0008517735986970365
6465000000.0 0.0008047395385801792 0.0005277590826153755
6466000000.0 0.0009047226631082594 9.538821177557111e-05
6467000000.0 0.000914284901227802 -0.00024073745589703321
6468000000.0 0.0006468697101809084 -0.0006231067236512899
6469000000.0 0.00025922010536305606 -0.0009142342605628073
6470000000.0 4.262756647221977e-06 -0.0009648102568462491
6471000000.0 -0.0004668018373195082 -0.0007464415393769741
6472000000.0 -0.0007945994730107486 -0.0003640926443040371
6473000000.0 -0.0008409674046561122 2.6100757168023847e-05
6474000000.0 -0.0007106783450581133 0.0004463901568669826
6475000000.0 -0.0004498480702750385 0.00073844293365255
6476000000.0 -8.875888306647539e-05 0.0008574458188377321
6477000000.0 0.00023470137966796756 0.0009552830597385764
6478000000.0 0.0006067532813176513 0.0005870101158507168
6479000000.0 0.0008051566546782851 0.00023878052888903767
6480000000.0 0.0008436752250418067 -0.00015024951426312327
6481000000.0 0.0005650420789606869 -0.0005239726160652936
6482000000.0 0.00019531200814526528 -0.0008018488879315555
6483000000.0 -5.9358480939408764e-06 -0.0008076756494119763
6484000000.0 -0.0005405526608228683 -0.0007613915950059891
6485000000.0 -0.000777089037001133 -0.0005532958311960101
6486000000.0 -0.0008585370960645378 1.0074446436192375e-05
6487000000.0 -0.000756976951379329 0.0003564044018276036
6488000000.0 -0.00046847789781168103 0.0005526674212887883
6489000000.0 -0.0002981768921017647 0.0008760445634834468
6490000000.0 0.00014324350922834128 0.0007019888143986464
6491000000.0 0.0005059130489826202 0.0005743674119003117
6492000000.0 0.0008188170031644404 0.0002698717871680856
6493000000.0 0.000882992462720722 -0.00016348187637049705
6494000000.0 0.0006506399950012565 -0.0005300593329593539
6495000000.0 0.0003007572377100587 -0.0007069366984069347
6496000000.0 8.331750723300502e-05 -0.0007707932381890714
6497000000.0 -0.00047031493159011006 -0.0008319143671542406
6498000000.0 -0.0007350662490352988 -0.0003692627069540322
6499000000.0 -0.000795830215793103 -0.00017361028585582972
6500000000.0 -0.0009463195456191897 0.00014450441813096404
6501000000.0 -0.0004369531525298953 0.0005405347910709679
6502000000.0 -0.0002335861063329503 0.0009267671266570687
6503000000.0 0.00020771667186636478 0.0010324876056984067
6504000000.0 0.0006438749842345715 0.0006698184297420084
6505000000.0 0.0007216817466542125 0.00032901461236178875
6506000000.0 0.0008924045832827687 -1.889709528768435e-05
6507000000.0 0.0007295653922483325 -0.0005360334762372077
6508000000.0 0.0004094592004548758 -0.0009205173118971288
6509000000.0 0.00018869689665734768 -0.0009287663269788027
6510000000.0 -0.0004563791735563427 -0.00077877810690552
6511000000.0 -0.0007879186305217445 -0.0005023116245865822
6512000000.0 -0.000823822570964694 -4.831654587178491e-05
6513000000.0 -0.0005880634416826069 0.00028116515022702515
6514000000.0 -0.0005644120392389596 0.0007041412172839046
6515000000.0 -6.104441126808524e-05 0.0008605928160250187
6516000000.0 0.0002621236490085721 0.0007461897912435234
6517000000.0 0.0005915677757002413 0.0006204838282428682
6518000000.0 0.0006777504459023476 0.00028175508487038314
6519000000.0 0.000857517879921943 -9.133161802310497e-05
6520000000.0 0.0007400208851322532 -0.0004287656338419765
6521000000.0 0.0003988445969298482 -0.00079143769107759
6522000000.0 2.6191853976342827e-05 -0.0008364339591935277
6523000000.0 -0.000507640652358532 -0.0007419158355332911
6524000000.0 -0.000772621133364737 -0.00045956455869600177
6525000000.0 -0.000722488621249795 -0.00016346879419870675
6526000000.0 -0.0008877519285306334 0.00032136787194758654
6527000000.0 -0.0006988645764067769 0.0007041966309770942
6528000000.0 -0.0002676161821000278 0.0008991054492071271
6529000000.0 0.00010853531421162188 0.0008671932155266404
6530000000.0 0.0004528946301434189 0.0007824951317161322
6531000000.0 0.0009754271013662219 0.0003560826007742435
6532000000.0 0.001065196585841477 -2.4135209969244897e-05
6533000000.0 0.0006213057204149663 -0.00042578086140565574
6534000000.0 0.000634495634585619 -0.0008351234719157219
6535000000.0 3.7244404666125774e-05 -0.0009213701705448329
6536000000.0 -0.0005000164965167642 -0.0008971733623184264
6537000000.0 -0.0009458176791667938 -0.0005717999301850796
6538000000.0 -0.0010586827993392944 -0.0001865959056885913
6539000000.0 -0.0008866587886586785 0.00036872128839604557
6540000000.0 -0.0005541100981645286 0.0006744860438629985
6541000000.0 -0.00020014139590784907 0.0010028054239228368
6542000000.0 0.00029162559076212347 0.0008829065482132137
6543000000.0 0.0007996431668289006 0.0008817304042167962
6544000000.0 0.0008572604856453836 0.000301390013191849
6545000000.0 0.0009680919465608895 -0.0002454634814057499
6546000000.0 0.0007974919280968606 -0.0007116618216969073
6547000000.0 0.0004013898142147809 -0.0008833561441861093
6548000000.0 -9.28360823309049e-05 -0.000916686374694109
6549000000.0 -0.0006274650222621858 -0.0008416780037805438
6550000000.0 -0.0009723798139020801 -0.0005178015562705696
6551000000.0 -0.0009570347610861063 4.788482328876853e-05
6552000000.0 -0.0009728139266371727 0.0005558573175221682
6553000000.0 -0.0005256232689134777 0.0007131225429475307
6554000000.0 -9.955248970072716e-05 0.0010041424538940191
6555000000.0 0.0004505123943090439 0.0010401622857898474
6556000000.0 0.0008008088334463537 0.0006588873802684247
6557000000.0 0.0011303812498226762 0.00035850980202667415
6558000000.0 0.001013831584714353 -0.0003319084644317627
6559000000.0 0.0005613453104160726 -0.0007854494615457952
6560000000.0 0.00026293948758393526 -0.0010192814515903592
6561000000.0 -0.0002806210541166365 -0.0009646406397223473
6562000000.0 -0.0006717775831930339 -0.0007645583827979863
6563000000.0 -0.0008180150180123746 -0.00032139697577804327
6564000000.0 -0.0008788359118625522 0.00033127612550742924
6565000000.0 -0.0007759180734865367 0.0005036831134930253
6566000000.0 -0.00043111576815135777 0.0007658143294975162
6567000000.0 7.629072206327692e-05 0.0009395132656209171
6568000000.0 0.0005196825368329883 0.0009698164067231119
6569000000.0 0.0008116832468658686 0.0005266011576168239
6570000000.0 0.0009357936214655638 0.00018795405048877
6571000000.0 0.0008737106691114604 -0.00026697947760112584
6572000000.0 0.0006607047980651259 -0.000567021721508354
6573000000.0 0.0002392237220192328 -0.0009571859845891595
6574000000.0 -0.00015658226038794965 -0.0007798424921929836
6575000000.0 -0.0006286627613008022 -0.000670302368234843
6576000000.0 -0.0007595348288305104 -0.0003628971171565354
6577000000.0 -0.0008918216917663813 1.2676971891778521e-05
6578000000.0 -0.0006975939613766968 0.00038302771281450987
6579000000.0 -0.0004226649762131274 0.0006409546476788819
6580000000.0 -5.7507571909809485e-05 0.0007431508274748921
6581000000.0 0.0002483853604644537 0.0008240992319770157
6582000000.0 0.0006631921278312802 0.0006231360021047294
6583000000.0 0.0008510701591148973 0.00012633517326321453
6584000000.0 0.0007173467893153429 -0.00016215976211242378
6585000000.0 0.000591874704696238 -0.0005485524889081717
6586000000.0 0.00029906717827543616 -0.0007224804721772671
6587000000.0 -3.30884286086075e-05 -0.0008192072273232043
6588000000.0 -0.0003392330545466393 -0.0005855094641447067
6589000000.0 -0.0006227734847925603 -0.00040560829802416265
6590000000.0 -0.0008786800899542868 1.876692840596661e-05
6591000000.0 -0.0007968468125909567 0.00030783828697167337
6592000000.0 -0.000593927048612386 0.0007001098128966987
6593000000.0 -0.0001816487347241491 0.0008828354184515774
6594000000.0 0.00017391533765476197 0.0009606771054677665
6595000000.0 0.0005681940820068121 0.0006736005889251828
6596000000.0 0.0008806121768429875 0.0003212990995962173
6597000000.0 0.0009512327960692346 -2.8392365493346006e-05
6598000000.0 0.0007635480724275112 -0.0004812995612155646
6599000000.0 0.00048194199916906655 -0.0007460745982825756
6600000000.0 4.583994723361684e-06 -0.0008447263389825821
6601000000.0 -0.0003927625366486609 -0.0007904904196038842
6602000000.0 -0.0005682014743797481 -0.0005069964099675417
6603000000.0 -0.0009197894250974059 -0.00021285182447172701
6604000000.0 -0.0009085665224120021 0.00027436218806542456
6605000000.0 -0.0007909176056273282 0.0006636437610723078
6606000000.0 -0.00036715512396767735 0.0008571709040552378
6607000000.0 4.831654950976372e-05 0.0010897726751863956
6608000000.0 0.0005036754300817847 0.0010234478395432234
6609000000.0 0.0008379473001696169 0.0006115076248534024
6610000000.0 0.0011573017109185457 0.00019109435379505157
6611000000.0 0.0012590859550982714 -0.00040403715684078634
6612000000.0 0.0009134749416261911 -0.0008646277128718793
6613000000.0 0.0003671845479402691 -0.0012548014055937529
6614000000.0 -0.0004984187544323504 -0.0014425397384911776
6615000000.0 -0.0009312470210716128 -0.0011300428304821253
6616000000.0 -0.0014822822995483875 -0.00045729425619356334
6617000000.0 -0.0016150972805917263 0.0003422859590500593
6618000000.0 -0.0013478383189067245 0.0010798596777021885
6619000000.0 -0.0007131838938221335 0.0017742090858519077
6620000000.0 0.00047663127770647407 0.0018940496956929564
6621000000.0 0.0013107997365295887 0.0013493570731952786
6622000000.0 0.0019858956802636385 0.0005639080191031098
6623000000.0 0.0020868112333118916 -0.0005970694473944604
6624000000.0 0.0013372416142374277 -0.0014978901017457247
6625000000.0 0.00024525035405531526 -0.002281374763697386
6626000000.0 -0.0008086540037766099 -0.0020080534741282463
6627000000.0 -0.0017085378058254719 -0.0013125564437359571
6628000000.0 -0.00208202563226223 -0.0002085846062982455
6629000000.0 -0.002026492729783058 0.0008950225892476737
6630000000.0 -0.0012291111052036285 0.0018760154489427805
6631000000.0 1.5544486814178526e-05 0.0021944986656308174
6632000000.0 0.0010552896419540048 0.001836220733821392
6633000000.0 0.001860531629063189 0.001064546755515039
6634000000.0 0.0019353094976395369 -0.0001303508470300585
6635000000.0 0.0017133798683062196 -0.0010155824711546302
6636000000.0 0.0008986717439256608 -0.001731965458020568
6637000000.0 -7.956811896292493e-05 -0.0018640162888914347
6638000000.0 -0.0008411268354393542 -0.0014978972030803561
6639000000.0 -0.0015347000444307923 -0.0008643286419101059
6640000000.0 -0.0016006359364837408 -8.060933032538742e-05
6641000000.0 -0.0013601216487586498 0.0006946044159121811
6642000000.0 -0.0007452900754287839 0.0012608658289536834
6643000000.0 -0.00018274676403962076 0.001529698958620429
6644000000.0 0.0005638435250148177 0.001330848317593336
6645000000.0 0.0011589432833716273 0.0008215730194933712
6646000000.0 0.001365389209240675 0.00020094006322324276
6647000000.0 0.0013268700568005443 -0.0005412073223851621
6648000000.0 0.0009860884165391326 -0.0010393469128757715
6649000000.0 0.00030613140552304685 -0.001213976414874196
6650000000.0 -0.00034015372511930764 -0.0011702366173267365
6651000000.0 -0.0006796865491196513 -0.0009752054465934634
6652000000.0 -0.0012197530595585704 -0.000509789097122848
6653000000.0 -0.0012060068547725677 0.00015838768740650266
6654000000.0 -0.0009855951648205519 0.0006298313965089619
6655000000.0 -0.0005939247785136104 0.0009954699780791998
6656000000.0 5.628499638987705e-05 0.001142522320151329
6657000000.0 0.0006633521406911314 0.001015983521938324
6658000000.0 0.0008094620425254107 0.0006861424772068858
6659000000.0 0.0011200318112969398 0.00014228025975171477
6660000000.0 0.0009540444007143378 -0.0005189250805415213
6661000000.0 0.0005577466799877584 -0.0006144832004792988
6662000000.0 0.00020478414080571383 -0.0009445358300581574
6663000000.0 -0.00037710124161094427 -0.0008929388131946325
6664000000.0 -0.000562007597181946 -0.0007541005033999681
6665000000.0 -0.0007192483171820641 -0.00011010548041667789
6666000000.0 -0.001014880952425301 9.917796705849469e-05
6667000000.0 -0.0006736766081303358 0.00044880027417093515
6668000000.0 -0.000377981283236295 0.0006513805128633976
6669000000.0 1.5062504644447472e-05 0.0008771888096816838
6670000000.0 0.00042217763257212937 0.0008544416050426662
6671000000.0 0.00048471364425495267 0.0005338177434168756
6672000000.0 0.0007328478968702257 0.00021772993204649538
6673000000.0 0.0009051286615431309 -0.00044057672494091094
6674000000.0 0.000607708643656224 -0.0004886877140961587
6675000000.0 0.0001836495939642191 -0.00081214914098382
6676000000.0 -0.00022088152763899416 -0.0008026218274608254
6677000000.0 -0.0003782367566600442 -0.0006121800979599357
6678000000.0 -0.0006511147366836667 -0.0003495994315017015
6679000000.0 -0.0008045880240388215 -0.00012310166493989527
6680000000.0 -0.0006972101400606334 0.00040165873360820115
6681000000.0 -0.0005090524209663272 0.0004506112018134445
6682000000.0 -1.5999199604266323e-05 0.0007752719684503973
6683000000.0 0.00011266910587437451 0.0006789779290556908
6684000000.0 0.000556610815692693 0.00040144205559045076
6685000000.0 0.0007176779326982796 0.00023852192680351436
6686000000.0 0.0007916775648482144 -0.0002972687070723623
6687000000.0 0.0007222950807772577 -0.0003862653102260083
6688000000.0 0.00025831779930740595 -0.0006101144244894385
6689000000.0 3.935009772249032e-06 -0.0007696602842770517
6690000000.0 -0.0002287722600158304 -0.0006256904453039169
6691000000.0 -0.000401707598939538 -0.00039786286652088165
6692000000.0 -0.0006255987100303173 -0.00016713071090634912
6693000000.0 -0.0008416543714702129 0.0002853820624295622
6694000000.0 -0.000522085465490818 0.0004227481549605727
6695000000.0 -0.0002608537906780839 0.0006420910940505564
6696000000.0 2.038957791228313e-05 0.0006826478056609631
6697000000.0 0.0003260411904193461 0.0005829413421452045
6698000000.0 0.0005680583417415619 0.00024163552734535187
6699000000.0 0.0007331572123803198 0.00011274533608229831
6700000000.0 0.0005253108101896942 -0.00024826714070513844
6701000000.0 0.00044324027840048075 -0.0006709517328999937
6702000000.0 8.126263855956495e-05 -0.0007690424681641161
6703000000.0 -0.0003738226951099932 -0.0008010264136828482
6704000000.0 -0.0004733403620775789 -0.0005293890135362744
6705000000.0 -0.0005898912786506116 -0.0002958929107990116
6706000000.0 -0.0007069524726830423 4.6807577746221796e-05
6707000000.0 -0.000584285706281662 0.0004295971302781254
6708000000.0 -0.00035994386416859925 0.0006242441595532
6709000000.0 -3.5929821024183184e-05 0.000845253758598119
6710000000.0 0.0003170834679622203 0.0007253791554830968
6711000000.0 0.0005426701391115785 0.0004239513073116541
6712000000.0 0.000749694649130106 -4.482119038584642e-05
6713000000.0 0.0007629608735442162 -0.0002155724068870768
6714000000.0 0.0003962054615840316 -0.0005164557951502502
6715000000.0 0.00019277790852356702 -0.0008526029414497316
6716000000.0 -0.0001411017874488607 -0.0008742952486500144
6717000000.0 -0.00042755581671372056 -0.0006931707030162215
6718000000.0 -0.0007304470636881888 -0.00036645945510827005
6719000000.0 -0.0009722565882839262 -3.675883635878563e-05
6720000000.0 -0.000804740353487432 0.0003173936565872282
6721000000.0 -0.0004545521514955908 0.000727470382116735
6722000000.0 -9.794790094019845e-05 0.0009004399762488902
6723000000.0 0.0003356797096785158 0.0008917134255170822
6724000000.0 0.0006332719349302351 0.00047701667062938213
6725000000.0 0.0008540346170775592 0.00034715834772214293
6726000000.0 0.0007298443815670907 -0.0001155083446064964
6727000000.0 0.0006744990241713822 -0.0007140428642742336
6728000000.0 0.00029931761673651636 -0.000859252642840147
6729000000.0 -0.0001098529392038472 -0.001004758756607771
6730000000.0 -0.0004986298736184835 -0.0006896418053656816
6731000000.0 -0.0009604620863683522 -0.0004229150654282421
6732000000.0 -0.0009762050467543304 -4.4450443965615705e-05
6733000000.0 -0.0009123652707785368 0.0005965643213130534
6734000000.0 -0.0006237410707399249 0.0008291715639643371
6735000000.0 4.669605004892219e-06 0.0011485092109069228
6736000000.0 0.0004334038239903748 0.0010131486924365163
6737000000.0 0.0008833735482767224 0.0007622361881658435
6738000000.0 0.0010583583498373628 0.0001570702443132177
6739000000.0 0.0008552947547286749 -0.0002754036395344883
6740000000.0 0.0008824478718452156 -0.0008664894849061966
6741000000.0 0.0004208301252219826 -0.0011634919792413712
6742000000.0 -0.00021909535280428827 -0.0010473703732714057
6743000000.0 -0.0008046693983487785 -0.0007756156264804304
6744000000.0 -0.0010459119221195579 -0.0005545243038795888
6745000000.0 -0.0011645929189398885 5.677329681930132e-05
6746000000.0 -0.0008805561810731888 0.0007911729626357555
6747000000.0 -0.0005280687473714352 0.0009840191341936588
6748000000.0 2.8627238862100057e-05 0.00111569429282099
6749000000.0 0.000505622650962323 0.0009340053074993193
6750000000.0 0.0009659893112257123 0.000611029623541981
6751000000.0 0.001116445753723383 0.00010339954314986244
6752000000.0 0.0012578156311064959 -0.00045777595369145274
6753000000.0 0.0008112145587801933 -0.0008917058003135026
6754000000.0 0.00011492823978187516 -0.001283865189179778
6755000000.0 -0.00029849426937289536 -0.0011003537802025676
6756000000.0 -0.0008490158943459392 -0.0008845063275657594
6757000000.0 -0.0011999233392998576 -0.0003436874831095338
6758000000.0 -0.0011921762488782406 0.0003020731674041599
6759000000.0 -0.0010555946500971913 0.0006811127532273531
6760000000.0 -0.00045562422019429505 0.0012062365422025323
6761000000.0 0.00012367242015898228 0.0012804674915969372
6762000000.0 0.0006573839928023517 0.0011374320602044463
6763000000.0 0.0012641235953196883 0.0005369842983782291
6764000000.0 0.0012079636799171567 0.00010304609168088064
6765000000.0 0.0011707637459039688 -0.0005797380581498146
6766000000.0 0.0008010785095393658 -0.0010311183286830783
6767000000.0 0.00028122359071858227 -0.0014153076335787773
6768000000.0 -0.0005993354716338217 -0.0013873507268726826
6769000000.0 -0.0010684727458283305 -0.0009600785560905933
6770000000.0 -0.0013768875505775213 -0.0002776209730654955
6771000000.0 -0.0014112342614680529 0.0005171025404706597
6772000000.0 -0.0011473975609987974 0.0010662471177056432
6773000000.0 -0.0004694731323979795 0.001561135402880609
6774000000.0 9.46594518609345e-05 0.0016024241922423244
6775000000.0 0.0009692684398032725 0.00128172617405653
6776000000.0 0.0015583910280838609 0.0005973526858724654
6777000000.0 0.0016580676892772317 -0.00023951167531777173
6778000000.0 0.001311235362663865 -0.0008270374382846057
6779000000.0 0.0006705460255034268 -0.0013622709084302187
6780000000.0 -0.00014857042697258294 -0.00166256632655859
6781000000.0 -0.0010257778922095895 -0.001414304249919951
6782000000.0 -0.0015634907176718116 -0.0007860672776587307
6783000000.0 -0.0017937102820724249 0.0001649450568947941
6784000000.0 -0.0014565454330295324 0.001054924912750721
6785000000.0 -0.000683286867570132 0.001487542176619172
6786000000.0 0.00010334286344004795 0.0017132465727627277
6787000000.0 0.001040286268107593 0.0013578208163380623
6788000000.0 0.001410866272635758 0.0008302847854793072
6789000000.0 0.001458334387280047 -0.00013871485134586692
6790000000.0 0.001388408592902124 -0.001010860432870686
6791000000.0 0.0008093166397884488 -0.0013750740326941013
6792000000.0 0.00011720205657184124 -0.001565237296745181
6793000000.0 -0.0007545758853666484 -0.0013866227818652987
6794000000.0 -0.0012719588121399283 -0.0007436094456352293
6795000000.0 -0.0015449258498847485 -0.00021913544333074242
6796000000.0 -0.0014256747672334313 0.0006833452498540282
6797000000.0 -0.0008011527243070304 0.0010108620626851916
6798000000.0 -0.0003266165149398148 0.0013908423716202378
6799000000.0 0.0005523441941477358 0.0012723618419840932
6800000000.0 0.0009882253361865878 0.0010193941416218877
6801000000.0 0.0012484375620260835 0.00038046049303375185
6802000000.0 0.0014264510245993733 -0.00021005826420150697
6803000000.0 0.0009150005644187331 -0.0007418142631649971
6804000000.0 0.0002913378120865673 -0.0012124179629608989
6805000000.0 -6.386980385286734e-05 -0.001283440855331719
6806000000.0 -0.0007653324282728136 -0.0011426652781665325
6807000000.0 -0.0010546402772888541 -0.0005060099065303802
6808000000.0 -0.0010635213693603873 -8.223485201597214e-05
6809000000.0 -0.0011418289504945278 0.0004155376518610865
6810000000.0 -0.0008370683644898236 0.0009540742612443864
6811000000.0 -0.00019998909556306899 0.0011247015791013837
6812000000.0 0.0005225503700785339 0.001189914415590465
6813000000.0 0.0008101033745333552 0.0008074295474216342
6814000000.0 0.0010083551751449704 0.00028795714024454355
6815000000.0 0.0009726022253744304 -0.00028639697120524943
6816000000.0 0.0007014446891844273 -0.0007200000691227615
6817000000.0 0.0003839314158540219 -0.0011997390538454056
6818000000.0 -0.0001983338879654184 -0.0010409130482003093
6819000000.0 -0.00047784188063815236 -0.0009701050585135818
6820000000.0 -0.0008599229040555656 -0.0004863909271080047
6821000000.0 -0.001009635510854423 -0.00018844073929358274
6822000000.0 -0.0008802160155028105 0.00048443477135151625
6823000000.0 -0.0005610131775029004 0.0008560657151974738
6824000000.0 -3.671102240332402e-05 0.0008587574702687562
6825000000.0 0.0003733296471182257 0.0010883411159738898
6826000000.0 0.0008158926502801478 0.0006572594284079969
6827000000.0 0.0009004688472487032 0.00034632018650881946
6828000000.0 0.0008997985278256238 -0.0001726139016682282
6829000000.0 0.0006776707014068961 -0.0005231903051026165
6830000000.0 0.0003396684187464416 -0.0008677486330270767
6831000000.0 -2.0505238353507593e-05 -0.0008466953877359629
6832000000.0 -0.0007393069681711495 -0.0008976134122349322
6833000000.0 -0.0008870981400832534 -0.000499621732160449
6834000000.0 -0.001007711049169302 3.353254442117759e-06
6835000000.0 -0.000816578627564013 0.0004614259523805231
6836000000.0 -0.0006296004867181182 0.0008147484040819108
6837000000.0 -2.3712218535365537e-05 0.0008126948960125446
6838000000.0 0.000410709559218958 0.0007730897050350904
6839000000.0 0.0006286671268753707 0.0004702115838881582
6840000000.0 0.0007840873440727592 9.774010686669499e-05
6841000000.0 0.0008343332447111607 -0.00033014416112564504
6842000000.0 0.0006422056467272341 -0.0005952692008577287
6843000000.0 0.00016634981147944927 -0.0008427734719589353
6844000000.0 -0.00017225448391400278 -0.0009249844588339329
6845000000.0 -0.000484837539261207 -0.000583004264626652
6846000000.0 -0.0008102921419776976 -0.0004381768230814487
6847000000.0 -0.000823359121568501 4.0702732803765684e-05
6848000000.0 -0.0007049465784803033 0.00037436679122038186
6849000000.0 -0.0005665890057571232 0.0007307691848836839
6850000000.0 -3.738516170415096e-05 0.0007908102124929428
6851000000.0 0.0001951262092916295 0.0007375204586423934
6852000000.0 0.0006746389553882182 0.0005588901112787426
6853000000.0 0.0007745359907858074 0.00016118568601086736
6854000000.0 0.000925493601243943 -5.383955794968642e-05
6855000000.0 0.0006067962385714054 -0.00028590491274371743
6856000000.0 0.00018048919446300715 -0.0007910578860901296
6857000000.0 -1.3927757208875846e-05 -0.0008080905536189675
6858000000.0 -0.000434959220001474 -0.0008088178001344204
6859000000.0 -0.0007369111408479512 -0.0003595169400796294
6860000000.0 -0.0007610807078890502 -2.6916719434666447e-05
6861000000.0 -0.0006670686416327953 0.00033873209031298757
6862000000.0 -0.000536686391569674 0.0006345681613311172
6863000000.0 -0.0003055799170397222 0.000802365830168128
6864000000.0 0.0002506920136511326 0.0008559409179724753
6865000000.0 0.0005061908159404993 0.0006945497007109225
6866000000.0 0.0006592432619072497 0.00033594280830584466
6867000000.0 0.0009914250113070011 -5.996234904159792e-05
6868000000.0 0.0008744773804210126 -0.0004649488255381584
6869000000.0 0.00019190870807506144 -0.0007797629805281758
6870000000.0 0.00013635316281579435 -0.00074016023427248
6871000000.0 -0.00037164310924708843 -0.0008466464933007956
6872000000.0 -0.000582528708036989 -0.0005186141934245825
6873000000.0 -0.000931897375266999 -0.00020426019909791648
6874000000.0 -0.0007411676924675703 0.0003278130025137216
6875000000.0 -0.0005530747002921999 0.0005757692269980907
6876000000.0 -0.00013106749975122511 0.0008865533745847642
6877000000.0 0.0001232216163771227 0.000705441867467016
6878000000.0 0.0006131416303105652 0.0005170697113499045
6879000000.0 0.0007941329968161881 0.00024717499036341906
6880000000.0 0.0008727659587748349 -0.00010309804929420352
6881000000.0 0.0005625221529044211 -0.00033973302925005555
6882000000.0 0.00044526654528453946 -0.0006167295505292714
6883000000.0 6.421776924980804e-05 -0.0007370204548351467
6884000000.0 -0.00034001475432887673 -0.0007924865349195898
6885000000.0 -0.0006797571550123394 -0.0004071448347531259
6886000000.0 -0.0008658020524308085 -0.00022841848840471357
6887000000.0 -0.0007402303745038807 0.00032773864222690463
6888000000.0 -0.0004163548001088202 0.0005883208359591663
6889000000.0 -0.000261043751379475 0.0005938369431532919
6890000000.0 0.0002734984445851296 0.0007913010776974261
6891000000.0 0.0005917156813666224 0.0006747299339622259
6892000000.0 0.0007802871405147016 0.00048377440543845296
6893000000.0 0.0008475707145407796 -7.792293035890907e-05
6894000000.0 0.0008382226806133986 -0.0004510537546593696
6895000000.0 0.0003994713770225644 -0.0007786788628436625
6896000000.0 5.092715218779631e-05 -0.0008600397268310189
6897000000.0 -0.0003881230659317225 -0.0007270769565366209
6898000000.0 -0.0005942798452451825 -0.0005726886447519064
6899000000.0 -0.0008139223209582269 -0.00010288799967383966
6900000000.0 -0.0006905117770656943 0.00019935551972594112
6901000000.0 -0.0006745111313648522 0.0006027401541359723
6902000000.0 -0.0003235463809687644 0.0006988570094108582
6903000000.0 0.00013036487507633865 0.0009080841555260122
6904000000.0 0.0006472654640674591 0.0006487014470621943
6905000000.0 0.0007179674576036632 0.0003917953581549227
6906000000.0 0.0007857567979954183 -0.00021055953402537853
6907000000.0 0.0006258107023313642 -0.0005725022638216615
6908000000.0 0.00043893486144952476 -0.0006560335750691593
6909000000.0 -5.839467849000357e-05 -0.0008679449674673378
6910000000.0 -0.0003476514539215714 -0.0006950853276066482
6911000000.0 -0.0006883725873194635 -0.00045489860349334776
6912000000.0 -0.000733047432731837 -0.0002782719093374908
6913000000.0 -0.0008392710005864501 0.00032674381509423256
6914000000.0 -0.0006372846546582878 0.0005539014819078147
6915000000.0 -0.0002291042619617656 0.0008348661358468235
6916000000.0 0.0003738660889212042 0.0007594474009238183
6917000000.0 0.0005316411843523383 0.0006239658105187118
6918000000.0 0.0007927369442768395 0.0002702329948078841
6919000000.0 0.0008625129121355712 -1.6443320419057272e-05
6920000000.0 0.0008262409246526659 -0.0005095450906082988
6921000000.0 0.0004296469269320369 -0.0008501319098286331
6922000000.0 5.674466956406832e-05 -0.0008998894481919706
6923000000.0 -0.0003456544363871217 -0.0008164444006979465
6924000000.0 -0.0008026331197470427 -0.0005364948301576078
6925000000.0 -0.0008264827774837613 -0.00023503831471316516
6926000000.0 -0.0009091956890188158 0.0003701412060763687
6927000000.0 -0.0006479830481112003 0.0006568196695297956
6928000000.0 -0.0002257605956401676 0.0009040632285177708
6929000000.0 0.0003057192370761186 0.0008788532577455044
6930000000.0 0.0005773142329417169 0.0007362397736869752
6931000000.0 0.0008739787735976279 0.00034927998785860837
6932000000.0 0.0008821985684335232 -0.00023111935297492892
6933000000.0 0.0008553567458875477 -0.0006627630791626871
6934000000.0 0.000638205383438617 -0.0008893987396731973
6935000000.0 -2.2934782464290038e-05 -0.0008062822162173688
6936000000.0 -0.00043479626765474677 -0.0009158254251815379
6937000000.0 -0.0008233522530645132 -0.0005573760718107224
6938000000.0 -0.0010551649611443281 -0.0001931306760525331
6939000000.0 -0.0009921714663505554 0.00044888866250403225
6940000000.0 -0.0006381306448020041 0.0005867374129593372
6941000000.0 -0.00027138597215525806 0.001007745275273919
6942000000.0 0.000267684314167127 0.0010595161002129316
6943000000.0 0.0006908930954523385 0.0007372762192972004
6944000000.0 0.0009252771269530058 0.00032813631696626544
6945000000.0 0.0009742857655510306 -0.00020271757966838777
6946000000.0 0.0007207084563560784 -0.0007994303596206009
6947000000.0 0.0004651011258829385 -0.0009435903048142791
6948000000.0 -1.3379909432842396e-05 -0.0011135413078591228
6949000000.0 -0.0006275473861023784 -0.0009509588708169758
6950000000.0 -0.0010855408618226647 -0.00044782739132642746
6951000000.0 -0.0010546105913817883 -2.071787093882449e-05
6952000000.0 -0.0008377087651751935 0.0004868607793468982
6953000000.0 -0.0005011530593037605 0.0007353989640250802
6954000000.0 -2.808567660395056e-05 0.0009909747168421745
6955000000.0 0.0005296770832501352 0.0008352731820195913
6956000000.0 0.0008543515577912331 0.0005319294868968427
6957000000.0 0.0009843932930380106 -7.753405225230381e-05
6958000000.0 0.0009140711044892669 -0.000446254009148106
6959000000.0 0.0005771188880316913 -0.0008431454189121723
6960000000.0 0.00016609505109954625 -0.0010105186374858022
6961000000.0 -0.00023437004711013287 -0.0009863035520538688
6962000000.0 -0.0008052592747844756 -0.0004894640878774226
6963000000.0 -0.0008958320249803364 -0.0002516788663342595
6964000000.0 -0.0009395222296006978 0.0002206740464316681
6965000000.0 -0.0006454061949625611 0.0006080457242205739
6966000000.0 -0.00023004948161542416 0.0007888483814895153
6967000000.0 0.00028047661180607975 0.0010052495636045933
6968000000.0 0.0005120504647493362 0.0005403565592132509
6969000000.0 0.0008681679028086364 0.0003413147060200572
6970000000.0 0.0008422356913797557 -0.00017090720939449966
6971000000.0 0.0005726676899939775 -0.00039929457125253975
6972000000.0 0.0005523351719602942 -0.0007077104528434575
6973000000.0 -4.6220655349316075e-05 -0.0008118407567963004
6974000000.0 -0.00040014003752730787 -0.0007415363215841353
6975000000.0 -0.0006160245975479484 -0.000511538062710315
6976000000.0 -0.0007793884724378586 -0.00016180846432689577
6977000000.0 -0.0007048919796943665 0.00015337413060478866
6978000000.0 -0.0005672574625350535 0.0004685631429310888
6979000000.0 -0.00014431185263674706 0.0008672408876009285
6980000000.0 0.00018636646564118564 0.0008162238518707454
6981000000.0 0.00044313064427115023 0.0005540911224670708
6982000000.0 0.0006809273036196828 0.000296646700007841
6983000000.0 0.0007152205216698349 -0.00010675506928237155
6984000000.0 0.000697570969350636 -0.00040522837662138045
6985000000.0 0.0003392132348380983 -0.000669497181661427
6986000000.0 -2.6782223358168267e-05 -0.0007293070666491985
6987000000.0 -0.0002174805267713964 -0.0006197409820742905
6988000000.0 -0.0004712262307293713 -0.00045153559767641127
6989000000.0 -0.0007351732347160578 -0.00026463830727152526
6990000000.0 -0.0007399246096611023 0.00026371065177954733
6991000000.0 -0.0006218577618710697 0.00037635123590007424
6992000000.0 -0.00014282672782428563 0.000509188452269882
6993000000.0 9.637074981583282e-05 0.0006265221745707095
6994000000.0 0.0003909181396011263 0.0006901486776769161
6995000000.0 0.0005183768807910383 0.00033635416184552014
6996000000.0 0.0007030319538898766 9.267194400308654e-05
6997000000.0 0.0007079030037857592 -0.0003392740327399224
6998000000.0 0.0002983328595291823 -0.0005488210590556264
6999000000.0 1.6195030184462667e-05 -0.0007432870916090906
7000000000.0 -0.00023112089547794312 -0.000655565585475415
