! Created with skrf 1.10.0 (http://scikit-rf.org).
# Hz S RI R 50.0 
!freq ReS11 ImS11
!
6000000000.0 0.0003613416920416057 0.0012687917333096266
6001000000.0 0.0008323164656758308 0.0010049320990219712
6002000000.0 0.0013013383140787482 0.00039608083898201585
6003000000.0 0.0012373735662549734 -0.00034083620994351804
6004000000.0 0.0009012834052555263 -0.0008412793395109475
6005000000.0 0.00041302095633000135 -0.0012949531665071845
6006000000.0 -0.0002539086854085326 -0.0012563501950353384
6007000000.0 -0.0006995503790676594 -0.0008867565775290132
6008000000.0 -0.0012029543286189437 -0.0004890240379609168
6009000000.0 -0.0012343758717179298 8.135913958540186e-05
6010000000.0 -0.0010355425765737891 0.0007111470913514495
6011000000.0 -0.0005967592005617917 0.0009886419866234064
6012000000.0 -5.89186092838645e-05 0.001159287174232304
6013000000.0 0.000476792425615713 0.0009973515989258885
6014000000.0 0.0009494117111898959 0.0007041218923404813
6015000000.0 0.0010977365309372544 0.0002773486194200814
6016000000.0 0.0010316212428733706 -0.0002758011978585273
6017000000.0 0.0008229035884141922 -0.0009146400261670351
6018000000.0 0.000268646574113518 -0.0009457228006795049
6019000000.0 -0.00022463097411673516 -0.0010178834199905396
6020000000.0 -0.0005345683312043548 -0.0007080179057084024
6021000000.0 -0.001010908279567957 -0.0003551927802618593
6022000000.0 -0.0010207680752500892 0.00013897994358558208
6023000000.0 -0.0008855374180711806 0.0005387386190705001
6024000000.0 -0.0005327122053131461 0.0010000145994126797
6025000000.0 -8.49032003316097e-05 0.0010678797261789441
6026000000.0 0.0004834903811570257 0.0007527647539973259
6027000000.0 0.0006962997722439468 0.0005190002848394215
6028000000.0 0.000990636763162911 0.00014009659935254604
6029000000.0 0.0009597629541531205 -0.000349054200341925
6030000000.0 0.0007141550304368138 -0.0007651757914572954
6031000000.0 0.00029524636920541525 -0.0008700399775989354
6032000000.0 -0.00027225902886129916 -0.0009324901620857418
6033000000.0 -0.000646393105853349 -0.0007007906679064035
6034000000.0 -0.0008650791714899242 -0.00036042617284692824
6035000000.0 -0.0009332835325039923 -2.762679650913924e-05
6036000000.0 -0.0007858875906094909 0.00040060977335087955
6037000000.0 -0.0003045279299840331 0.0007318982970900834
6038000000.0 -0.00011647347128018737 0.0008735869196243584
6039000000.0 0.00031819878495298326 0.0009134520660154521
6040000000.0 0.0006838621920906007 0.000625618442427367
6041000000.0 0.0009225807734765112 0.0002021909604081884
6042000000.0 0.000894049764610827 -0.00029420791543088853
6043000000.0 0.0005746085662394762 -0.000574279751162976
6044000000.0 0.000283492001472041 -0.0009464072063565254
6045000000.0 -0.00011358845222275704 -0.0008709335816092789
6046000000.0 -0.000544592970982194 -0.0007053776062093675
6047000000.0 -0.0006888603093102574 -0.0004789579543285072
6048000000.0 -0.0008686297805979848 -8.710991824045777e-05
6049000000.0 -0.0007652114727534354 0.00030172307742759585
6050000000.0 -0.00040454306872561574 0.0006697018397971988
6051000000.0 -0.00012110711395507678 0.001026952057145536
6052000000.0 0.0003020249423570931 0.0008529949118383229
6053000000.0 0.0006494347471743822 0.0006201093783602118
6054000000.0 0.0008972387295216322 0.00026247010100632906
6055000000.0 0.0010723060695454478 -0.00020854233298450708
6056000000.0 0.000611680094152689 -0.0006689073052257299
6057000000.0 0.0003930193488486111 -0.0009638904593884945
6058000000.0 6.043227131158346e-06 -0.0009821465937420726
6059000000.0 -0.0004920976934954524 -0.0007838921155780554
6060000000.0 -0.0007941819494590163 -0.0005917420494370162
6061000000.0 -0.0008205780177377164 -5.274597424431704e-05
6062000000.0 -0.0008388909045606852 0.00037098146276548505
6063000000.0 -0.0006265824194997549 0.0008446684223599732
6064000000.0 -0.00020062569819856435 0.0009087470825761557
6065000000.0 0.0003245712141506374 0.000877110636793077
6066000000.0 0.0007540800725109875 0.0007718659471720457
6067000000.0 0.000974594266153872 0.0002850122400559485
6068000000.0 0.0009516278514638543 -0.00021150012616999447
6069000000.0 0.0009576173033565283 -0.0004797821748070419
6070000000.0 0.00024404101714026183 -0.0009468523785471916
6071000000.0 -0.00023544019495602697 -0.0010338507127016783
6072000000.0 -0.0005300784832797945 -0.0007090292638167739
6073000000.0 -0.0008966861059889197 -0.000519846857059747
6074000000.0 -0.0008950834744609892 0.00012638595944736153
6075000000.0 -0.0008556712418794632 0.0005125059396959841
6076000000.0 -0.0006642501684837043 0.0008120936108753085
6077000000.0 -0.00010603016562527046 0.0009866382461041212
6078000000.0 0.0004879685293417424 0.0010408436646685004
6079000000.0 0.0007931679137982428 0.0004996891366317868
6080000000.0 0.000773528590798378 0.0001562290417496115
6081000000.0 0.0008925289148464799 -0.0004343729233369231
6082000000.0 0.0009167251992039382 -0.0005802959785796702
6083000000.0 0.00045870780013501644 -0.0008766277460381389
6084000000.0 -0.0003781863779295236 -0.0009833571966737509
6085000000.0 -0.0005160056171007454 -0.0007564423722214997
6086000000.0 -0.0009448629571124911 -0.00036757742054760456
6087000000.0 -0.0009616061579436064 0.00016503967344760895
6088000000.0 -0.0007491350988857448 0.0005446317372843623
6089000000.0 -0.00048588099889457226 0.0009389577899128199
6090000000.0 -0.0002139615680789575 0.0010814303532242775
6091000000.0 0.0005897966912016273 0.0009563218918628991
6092000000.0 0.0006913322140462697 0.0004794919805135578
6093000000.0 0.0008766513783484697 0.00011347266263328493
6094000000.0 0.0008390090079046786 -0.0004190229519736022
6095000000.0 0.0006942064501345158 -0.000785752956289798
6096000000.0 0.00014382856898009777 -0.0007257782854139805
6097000000.0 -0.0003429182106629014 -0.000970975961536169
6098000000.0 -0.0007052771979942918 -0.0007572710164822638
6099000000.0 -0.0009527498623356223 -0.00037346320459619164
6100000000.0 -0.0009059316362254322 -7.94486841186881e-05
6101000000.0 -0.0008022477850317955 0.00050952541641891
6102000000.0 -0.0004865872033406049 0.0008669662638567388
6103000000.0 -3.17882040690165e-05 0.0009621322387829423
6104000000.0 0.00045252192649059 0.0008801585645414889
6105000000.0 0.0009677365887910128 0.0004904479719698429
6106000000.0 0.001124832546338439 6.31718648946844e-05
6107000000.0 0.000916444871108979 -0.00031459005549550056
6108000000.0 0.0006993119604885578 -0.0005289986729621887
6109000000.0 0.00024162644695024937 -0.0009872759692370892
6110000000.0 -0.0003925554337911308 -0.0008260586182586849
6111000000.0 -0.0006183513905853033 -0.0009977141162380576
6112000000.0 -0.0008003332768566906 -0.0004948673886246979
6113000000.0 -0.0011584496824070811 -5.3675976232625544e-05
6114000000.0 -0.0008523996220901608 0.0005950022605247796
6115000000.0 -0.0005735749728046358 0.0009027939522638917
6116000000.0 8.615128535893746e-06 0.0010324999457225204
6117000000.0 0.0007158328662626445 0.0009494954720139503
6118000000.0 0.000969297718256712 0.0006427633343264461
6119000000.0 0.0008369764545932412 0.00012587170931510627
6120000000.0 0.001031103078275919 -0.0005426279385574162
6121000000.0 0.0005610101507045329 -0.0008434617193415761
6122000000.0 0.0004993873299099505 -0.0008694916614331305
6123000000.0 -0.0002997763513121754 -0.0010851792758330703
6124000000.0 -0.0004946859553456306 -0.0008563233423046768
6125000000.0 -0.00103560381103307 -0.00032765354262664914
6126000000.0 -0.0011997247347608209 7.944551180116832e-05
6127000000.0 -0.0009294566116295755 0.000670329260174185
6128000000.0 -0.0003534423594828695 0.0011820999206975102
6129000000.0 3.228982677683234e-05 0.0015175491571426392
6130000000.0 0.0005054206703789532 0.0008305175579153001
6131000000.0 0.0011884664418175817 0.0006857035914435983
6132000000.0 0.0012467290507629514 8.891629113350064e-05
6133000000.0 0.0010449076071381569 -0.0005191481905058026
6134000000.0 0.0006248552817851305 -0.0010018158936873078
6135000000.0 0.00010012145503424108 -0.0012824777513742447
6136000000.0 -0.000519081368111074 -0.0010273662628605962
6137000000.0 -0.0007228413014672697 -0.000834021542686969
6138000000.0 -0.0011433977633714676 -7.00327436788939e-05
6139000000.0 -0.001044462900608778 0.0001509658613940701
6140000000.0 -0.0009339778334833682 0.0007281897705979645
6141000000.0 -0.0002617269929032773 0.0009279835503548384
6142000000.0 0.00021379473037086427 0.001103451126255095
6143000000.0 0.0007429172401316464 0.0009883081074804068
6144000000.0 0.001134288846515119 0.0005153179517947137
6145000000.0 0.0011423953110352159 -0.00015777036605868489
6146000000.0 0.0009331112378276885 -0.0006038733990862966
6147000000.0 0.0005716180894523859 -0.0008800814393907785
6148000000.0 4.331110540078953e-05 -0.00105169543530792
6149000000.0 -0.0005582933663390577 -0.0007625144789926708
6150000000.0 -0.0009803572902455926 -0.00046868689241819084
6151000000.0 -0.0010229186154901981 -0.00018873308727052063
6152000000.0 -0.0010079623898491263 0.00025708565954118967
6153000000.0 -0.0008134099189192057 0.0007848943350836635
6154000000.0 -0.0002168946957681328 0.0009959936141967773
6155000000.0 0.0003043112519662827 0.0010369314113631845
6156000000.0 0.0007332114619202912 0.00083225651178509
6157000000.0 0.000982321915216744 0.0003572280693333596
6158000000.0 0.0008851414313539863 -9.27037326619029e-05
6159000000.0 0.0006470489897765219 -0.0005442057154141366
6160000000.0 0.0006338785751722753 -0.0009318497031927109
6161000000.0 -3.438815110712312e-05 -0.0011048722080886364
6162000000.0 -0.0005870240274816751 -0.0008323428337462246
6163000000.0 -0.000864157103933394 -0.0005828056018799543
6164000000.0 -0.0009135738364420831 -0.00013200979446992278
6165000000.0 -0.0009689205326139927 0.00045168717042542994
6166000000.0 -0.0008365800604224205 0.0007459184853360057
6167000000.0 -0.0001335695997113362 0.0011150466743856668
6168000000.0 0.0002444448764435947 0.0010028270771726966
6169000000.0 0.0006729346350766718 0.0009017178090289235
6170000000.0 0.0008084767032414675 0.0003794614167418331
6171000000.0 0.00108947919216007 -0.0001649830082897097
6172000000.0 0.0008309197728522122 -0.0005954426014795899
6173000000.0 0.0003425544418860227 -0.0009606241947039962
6174000000.0 -0.0001417189632775262 -0.0009820826817303896
6175000000.0 -0.0004915590398013592 -0.0009107973892241716
6176000000.0 -0.0007911229622550309 -0.0006562545313499868
6177000000.0 -0.000925099418964237 -0.00011885420826729387
6178000000.0 -0.0008562898728996515 0.00021715069306083024
6179000000.0 -0.0006875161197967827 0.0007204354624263942
6180000000.0 -0.00022968772100284696 0.0009311357862316072
6181000000.0 0.00020903869881294668 0.0009673753520473838
6182000000.0 0.0006292846519500017 0.0009352497872896492
6183000000.0 0.0009664962417446077 0.0004957499331794679
6184000000.0 0.0011133394436910748 -0.00024023088917601854
6185000000.0 0.000875596422702074 -0.0005944990552961826
6186000000.0 0.0005313081783242524 -0.0008747513056732714
6187000000.0 4.51777577836765e-06 -0.0008853162289597094
6188000000.0 -0.0004734514805022627 -0.0008999395649880171
6189000000.0 -0.0009755320497788489 -0.0007071748841553926
6190000000.0 -0.0011426870478317142 -0.00018295750487595797
6191000000.0 -0.0012184830848127604 0.0002729039406403899
6192000000.0 -0.0008791644941084087 0.000914769887458533
6193000000.0 -0.00015427498146891594 0.0011309506371617317
6194000000.0 0.00021939407452009618 0.0009496422717347741
6195000000.0 0.0006558881141245365 0.0007576719508506358
6196000000.0 0.0011401831870898604 0.0002535613311920315
6197000000.0 0.0010264471638947725 -4.7425761295016855e-05
6198000000.0 0.0009970954852178693 -0.0005886779981665313
6199000000.0 0.0006009505596011877 -0.0010115635814145207
6200000000.0 1.4991183888923842e-05 -0.0013330882648006082
6201000000.0 -0.0006607349496334791 -0.0009422869188711047
6202000000.0 -0.0008999502169899642 -0.0007055217283777893
6203000000.0 -0.0011691201943904161 4.250897291058209e-06
6204000000.0 -0.0010612702462822199 0.0005567077896557748
6205000000.0 -0.0005514718941412866 0.0009217961342073977
6206000000.0 -0.00023989676265046 0.0009865988977253437
6207000000.0 0.000508365745190531 0.0011509585892781615
6208000000.0 0.0009351297630928457 0.0006726031424477696
6209000000.0 0.0011929086176678538 0.0002895990910474211
6210000000.0 0.0011277309386059642 -0.000342997838743031
6211000000.0 0.0008523166761733592 -0.0008551900973543525
6212000000.0 0.00037094406434334815 -0.0010690800845623016
6213000000.0 -0.00025431596441194415 -0.0012594811851158738
6214000000.0 -0.0006342580309137702 -0.0009447936317883432
6215000000.0 -0.0010608898010104895 -0.0005102427676320076
6216000000.0 -0.001165672205388546 9.016549483931158e-06
6217000000.0 -0.0010117897763848305 0.0005873250775039196
6218000000.0 -0.0006877082050777972 0.0012244426179677248
6219000000.0 -7.965308031998575e-05 0.0012022772571071982
6220000000.0 0.0005935842636972666 0.0011089637409895658
6221000000.0 0.0008357164915651083 0.000778059707954526
6222000000.0 0.0013024682411924005 0.0002330481947865337
6223000000.0 0.0011210266966372728 -0.000378426571842283
6224000000.0 0.0008586200419813395 -0.0008893160265870392
6225000000.0 0.00029918926884420216 -0.0010879620676860213
6226000000.0 -0.0002583349996712059 -0.0011390784056857228
6227000000.0 -0.0006983543280512094 -0.0007384138880297542
6228000000.0 -0.001117662526667118 -0.0005010950262658298
6229000000.0 -0.0011554054217413068 0.00011642330355243757
6230000000.0 -0.0009724109550006688 0.0007868824177421629
6231000000.0 -0.00047972859465517104 0.0009711583843454719
6232000000.0 0.00011369367712177336 0.0010061360662803054
6233000000.0 0.0005573724047280848 0.0010681647108867764
6234000000.0 0.0009893332608044147 0.0006311823381111026
6235000000.0 0.0010663466528058052 0.00020844340906478465
6236000000.0 0.0011498340172693133 -0.0005366523400880396
6237000000.0 0.0006844999152235687 -0.0009030327200889587
6238000000.0 0.00018560161697678268 -0.0010961012449115515
6239000000.0 -0.00035064510302618146 -0.0011224037734791636
6240000000.0 -0.0008630869560874999 -0.0007945122779347003
6241000000.0 -0.0009175908053293824 -0.00030016631353646517
6242000000.0 -0.00084662064909935 0.00015575275756418705
6243000000.0 -0.000963445520028472 0.0007036143797449768
6244000000.0 -0.0003429065691307187 0.0009777034865692258
6245000000.0 0.00012009472993668169 0.0009677936905063689
6246000000.0 0.00046847492922097445 0.000770555401686579
6247000000.0 0.000709913729224354 0.00039527949411422014
6248000000.0 0.0009501886088401079 7.990712219907437e-06
6249000000.0 0.0010009398683905602 -0.00044640133273787796
6250000000.0 0.0004930455470457673 -0.0006624785019084811
6251000000.0 0.00022963904484640807 -0.0010777851566672325
6252000000.0 -0.000352664093952626 -0.0008809936698526144
6253000000.0 -0.0006918280269019306 -0.0006821869174018502
6254000000.0 -0.001076700515113771 -0.0004163582343608141
6255000000.0 -0.0010504976380616426 0.0001159515231847763
6256000000.0 -0.0006602137582376599 0.0006563567440025508
6257000000.0 -0.0004300892469473183 0.000836995430290699
6258000000.0 -0.00010151429160032421 0.0009180395281873643
6259000000.0 0.000528146920260042 0.0009857735130935907
6260000000.0 0.0007865541847422719 0.0005311954882927239
6261000000.0 0.0009053268004208803 -4.351416282588616e-05
6262000000.0 0.0008262034971266985 -0.00031996844336390495
6263000000.0 0.0006236349581740797 -0.0006523998454213142
6264000000.0 0.0003094537532888353 -0.0007916566682979465
6265000000.0 -0.0003201628860551864 -0.0008339899941347539
6266000000.0 -0.00033386595896445215 -0.0007068909471854568
6267000000.0 -0.0006882692105136812 -0.00032379775075241923
6268000000.0 -0.0008839736692607403 9.805834997678176e-05
6269000000.0 -0.0006482279277406633 0.0004568524600472301
6270000000.0 -0.0002573644742369652 0.0007942407391965389
6271000000.0 3.0471548598143272e-05 0.00078598503023386
6272000000.0 0.00035974066122435033 0.00072189059574157
6273000000.0 0.0007325616315938532 0.0006806992460042238
6274000000.0 0.0008542653522454202 0.00028717442182824016
6275000000.0 0.0007765073096379638 -9.911583038046956e-05
6276000000.0 0.0006972036208026111 -0.0006803034339100122
6277000000.0 0.0002722745412029326 -0.0009615134913474321
6278000000.0 -0.00012037027045153081 -0.0008938290411606431
6279000000.0 -0.0004147216968704015 -0.0007608597516082227
6280000000.0 -0.0008376207551918924 -0.00028727937024086714
6281000000.0 -0.0008891202160157263 -1.1514435755088925e-05
6282000000.0 -0.0006971980328671634 0.00046533564454875886
6283000000.0 -0.0005943062715232372 0.0007233275100588799
6284000000.0 -0.0001979000080609694 0.0007623268757015467
6285000000.0 0.00035909097641706467 0.0008327807299792767
6286000000.0 0.0006108503439463675 0.0006411217036657035
6287000000.0 0.0007414701394736767 0.0002934382064267993
6288000000.0 0.000971830275375396 -8.708801033208147e-05
6289000000.0 0.0007861174526624382 -0.0005799963837489486
6290000000.0 0.0003088353550992906 -0.000808386888820678
6291000000.0 -3.695240957313217e-05 -0.0011322383070364594
6292000000.0 -0.00037144406815059483 -0.0008993882802315056
6293000000.0 -0.0007577582728117704 -0.000619372061919421
6294000000.0 -0.0009768918389454484 -0.00017887642025016248
6295000000.0 -0.0010760840959846973 0.0002533070801291615
6296000000.0 -0.0006647665868513286 0.0007898735930211842
6297000000.0 -0.00020525488071143627 0.0010779158910736442
6298000000.0 0.00022064923541620374 0.000984566519036889
6299000000.0 0.0007216681842692196 0.0007996335043571889
6300000000.0 0.001047695055603981 0.0005331045249477029
6301000000.0 0.0010721954749897122 -2.9805571102770045e-05
6302000000.0 0.0009185284143313766 -0.0007675132947042584
6303000000.0 0.0005793226882815361 -0.001006159815005958
6304000000.0 -6.18548147031106e-05 -0.0011657666182145476
6305000000.0 -0.0004744560574181378 -0.0010707654291763902
6306000000.0 -0.0009766785660758615 -0.0006176713504828513
6307000000.0 -0.001209969981573522 -7.872685819165781e-05
6308000000.0 -0.0013459675246849656 0.0005817107739858329
6309000000.0 -0.0007787835202179849 0.001078556408174336
6310000000.0 -0.00015845060988795012 0.0013297637924551964
6311000000.0 0.0005273016868159175 0.0012816134840250015
6312000000.0 0.00108966080006212 0.0008597297710366547
6313000000.0 0.001347208279184997 0.0002754998567979783
6314000000.0 0.0012661865912377834 -0.00047177119995467365
6315000000.0 0.000930936832446605 -0.0010011144913733006
6316000000.0 0.0003981475892942399 -0.0014085853472352028
6317000000.0 -0.000404707359848544 -0.00127164158038795
6318000000.0 -0.0010416675359010696 -0.0011031636968255043
6319000000.0 -0.001391042722389102 -0.00037469525705091655
6320000000.0 -0.0014248910592868924 0.00029523074044846
6321000000.0 -0.0010987762361764908 0.0009268175926990807
6322000000.0 -0.0004460060445126146 0.001321706105954945
6323000000.0 0.00024108606157824397 0.0013984253164380789
6324000000.0 0.0009263938409276307 0.0010556913912296295
6325000000.0 0.0011994987726211548 0.0006150610279291868
6326000000.0 0.0013285980094224215 8.95322227734141e-06
6327000000.0 0.001149907591752708 -0.0006259605870582163
6328000000.0 0.0006720276433043182 -0.0009990764083340764
6329000000.0 -3.6506720789475366e-05 -0.0012326904106885195
6330000000.0 -0.0006886106566525996 -0.0011872072936967015
6331000000.0 -0.001052787178196013 -0.0006629511481150985
6332000000.0 -0.0011766154784709215 -0.00016707730537746102
6333000000.0 -0.0011001239763572812 0.000507698452565819
6334000000.0 -0.0007536706398241222 0.0009103491902351379
6335000000.0 -0.00014200374425854534 0.001157222199253738
6336000000.0 0.00042323817615397274 0.0010480766650289297
6337000000.0 0.0008822957752272487 0.0008922692504711449
6338000000.0 0.001066058175638318 0.00028753108927048743
6339000000.0 0.001190186245366931 -0.00023415367468260229
6340000000.0 0.000788257282692939 -0.0005864103441126645
6341000000.0 0.0004971972084604204 -0.0010906715178862214
6342000000.0 4.330766387283802e-05 -0.0011480848770588636
6343000000.0 -0.0005354501190595329 -0.0009472224046476185
6344000000.0 -0.0008696345030330122 -0.0006020436412654817
6345000000.0 -0.0010747105116024613 -7.958850619615987e-05
6346000000.0 -0.0010032952995970845 0.0004012141434941441
6347000000.0 -0.0005177266430109739 0.0008346504764631391
6348000000.0 -0.00015685464313719422 0.000972215086221695
6349000000.0 0.0003434153040871024 0.001109996810555458
6350000000.0 0.0006856255349703133 0.0007121661328710616
6351000000.0 0.0009869226487353444 0.00033371776225976646
6352000000.0 0.0009935826528817415 -0.00020783946092706174
6353000000.0 0.0008811368024908006 -0.0005421422538347542
6354000000.0 0.000538293388672173 -0.0008571684011258185
6355000000.0 -5.3672309149987996e-05 -0.0010899303015321493
6356000000.0 -0.0004100601654499769 -0.0008357216720469296
6357000000.0 -0.0008543868898414075 -0.0006192836444824934
6358000000.0 -0.0009621579083614051 -4.740445365314372e-05
6359000000.0 -0.0009163030772469938 0.00042100370046682656
6360000000.0 -0.0006475302507169545 0.0007346477941609919
6361000000.0 -0.0002890189934987575 0.0009556799777783453
6362000000.0 0.00019587465794757009 0.0009113987907767296
6363000000.0 0.0006866321782581508 0.0007634147768840194
6364000000.0 0.0010294623207300901 0.0002866422582883388
6365000000.0 0.0010358308209106326 -0.00011019298108294606
6366000000.0 0.0008087372407317162 -0.0005782062653452158
6367000000.0 0.0004511503502726555 -0.0008609428768977523
6368000000.0 7.378082227660343e-05 -0.0009664013632573187
6369000000.0 -0.00047444988740608096 -0.0008959124097600579
6370000000.0 -0.0008367716218344867 -0.000585285248234868
6371000000.0 -0.001030785613693297 -0.00015091228124219924
6372000000.0 -0.0009039623546414077 0.0004077766207046807
6373000000.0 -0.0006369194597937167 0.0008363680099137127
6374000000.0 -0.00019685598090291023 0.0009622872457839549
6375000000.0 0.000149353698361665 0.0010129030561074615
6376000000.0 0.0007014279253780842 0.0007255877717398107
6377000000.0 0.0009361642296425998 0.00032046495471149683
6378000000.0 0.0009822695283219218 -0.00017907678557094187
6379000000.0 0.0008781402138993144 -0.0006234404281713068
6380000000.0 0.0004101895319763571 -0.0008776808390393853
6381000000.0 -3.399855995667167e-05 -0.0010679104598239064
6382000000.0 -0.0004906169488094747 -0.0008279019384644926
6383000000.0 -0.0008281799382530153 -0.0006060329615138471
6384000000.0 -0.0010310818906873465 -0.0001440797932446003
6385000000.0 -0.0009513680124655366 0.0003560142358765006
6386000000.0 -0.000599665567278862 0.0007654991932213306
6387000000.0 -0.00018711290613282472 0.000874162360560149
6388000000.0 0.0002576859842520207 0.0009660508367232978
6389000000.0 0.0007147282012738287 0.0008081739069893956
6390000000.0 0.0009671999723650515 0.0003243708051741123
6391000000.0 0.001008315128274262 -0.00015252338198479265
6392000000.0 0.000837182451505214 -0.0006108717061579227
6393000000.0 0.00047263619489967823 -0.0008847289718687534
6394000000.0 -6.011826189933345e-05 -0.000988136394880712
6395000000.0 -0.0005574545357376337 -0.000986663973890245
6396000000.0 -0.0008811164298094809 -0.0005804974352940917
6397000000.0 -0.001075334963388741 -0.00011863971303682774
6398000000.0 -0.0010342819150537252 0.0003937523579224944
6399000000.0 -0.0007115224143490195 0.0009097870206460357
6400000000.0 -0.0001839792384998873 0.0011118095135316253
6401000000.0 0.0003561374905984849 0.0010639901738613844
6402000000.0 0.0007736026309430599 0.0006775585934519768
6403000000.0 0.001048361649736762 0.00036401956458576024
6404000000.0 0.001112012192606926 -0.0001994836056837812
6405000000.0 0.0008038660162128508 -0.000688040629029274
6406000000.0 0.00042249925900250673 -0.0011032369220629334
6407000000.0 -9.424032032256946e-05 -0.0010739751160144806
6408000000.0 -0.0005979149718768895 -0.0009996382286772132
6409000000.0 -0.0009672644082456827 -0.0005432491307146847
6410000000.0 -0.0012088377261534333 7.415847358061001e-05
6411000000.0 -0.0010418521706014872 0.0007051383145153522
6412000000.0 -0.0005641014431603253 0.0010065622627735138
6413000000.0 -0.00013178300287108868 0.0011595154646784067
6414000000.0 0.0006069096853025258 0.0011190087534487247
6415000000.0 0.0009900751756504178 0.0006537475856021047
6416000000.0 0.0012251789448782802 8.832557796267793e-05
6417000000.0 0.001068476471118629 -0.00047027418622747064
6418000000.0 0.0006503850454464555 -0.0010247724130749702
6419000000.0 0.00014471796748694032 -0.0011059774551540613
6420000000.0 -0.0004222900315653533 -0.0011192202800884843
6421000000.0 -0.0009005940519273281 -0.0008166211773641407
6422000000.0 -0.0011410186998546124 -0.00023125417646951973
6423000000.0 -0.001032206928357482 0.00036934070521965623
6424000000.0 -0.0007696791435591877 0.0007954711327329278
6425000000.0 -0.00027712868177331984 0.0010182723635807633
6426000000.0 0.00027122031315229833 0.001069774036295712
6427000000.0 0.000757143774535507 0.0007389559759758413
6428000000.0 0.0009470584336668253 0.00031685520661994815
6429000000.0 0.0010557281784713268 -0.00013235847291070968
6430000000.0 0.0008322398643940687 -0.0005464126006700099
6431000000.0 0.0003646314435172826 -0.0008800190989859402
6432000000.0 9.619973752705846e-06 -0.0009952563559636474
6433000000.0 -0.00046846477198414505 -0.000797413638792932
6434000000.0 -0.0007252349751070142 -0.0005053638014942408
6435000000.0 -0.0008691403781995177 -0.00012291563325561583
6436000000.0 -0.0007882724748924375 0.000422769837314263
6437000000.0 -0.000491215439978987 0.0006800293340347707
6438000000.0 -0.00024007452884688973 0.0008775322930887341
6439000000.0 0.00023734790738672018 0.0007476698374375701
6440000000.0 0.00062076176982373 0.0005824495456181467
6441000000.0 0.0007543169194832444 0.0001645456359256059
6442000000.0 0.0008209929801523685 -0.0001608838647371158
6443000000.0 0.0007158275693655014 -0.00048390059964731336
6444000000.0 0.0003110699763055891 -0.0007101916708052158
6445000000.0 3.0493978556478396e-05 -0.0007756925188004971
6446000000.0 -0.00036971611552871764 -0.0006313417688943446
6447000000.0 -0.0007123213727027178 -0.000410594540880993
6448000000.0 -0.000797044369392097 -0.0001211911512655206
6449000000.0 -0.0007543285028077662 0.00033953151432797313
6450000000.0 -0.0005177761195227504 0.0006449050270020962
6451000000.0 -0.00019704297301359475 0.0007204573485068977
6452000000.0 0.0002738824696280062 0.0007768116192892194
6453000000.0 0.0005739772459492087 0.0005935290246270597
6454000000.0 0.0006976003642193973 0.00025663155247457325
6455000000.0 0.0006968618254177272 -2.346699511690531e-05
6456000000.0 0.0006911098607815802 -0.000400058226659894
6457000000.0 0.0003062293981201947 -0.0006791918422095478
6458000000.0 8.82824242580682e-05 -0.0007178582018241286
6459000000.0 -0.0002605611807666719 -0.0006182260112836957
6460000000.0 -0.0005564839811995625 -0.0004472508153412491
6461000000.0 -0.0007384576601907611 -0.0001647767348913476
6462000000.0 -0.0006347359158098698 0.00022582258679904044
6463000000.0 -0.00044131584581919014 0.0005953049985691905
6464000000.0 -0.00022168955183587968 0.0007206556620076299
6465000000.0 0.00010520379873923957 0.0007512521115131676
6466000000.0 0.00043493456905707717 0.0005134892999194562
6467000000.0 0.0006892129895277321 0.0002947942411992699
6468000000.0 0.0006609280244447291 -5.275086368783377e-05
6469000000.0 0.00058204703964293 -0.0003687230928335339
6470000000.0 0.00042824880802072585 -0.0006805810844525695
6471000000.0 2.1524765543290414e-05 -0.0007390815299004316
6472000000.0 -0.00032809656113386154 -0.00070935272378847
6473000000.0 -0.0005628166254609823 -0.0005165203474462032
6474000000.0 -0.0006661938386969268 -0.0002025666180998087
6475000000.0 -0.0007582716643810272 0.00018564584024716169
6476000000.0 -0.0005027004517614841 0.0005156553233973682
6477000000.0 -0.00017821628716774285 0.0006769223837181926
6478000000.0 3.871343142236583e-05 0.0007371407700702548
6479000000.0 0.0004078944039065391 0.0006264117546379566
6480000000.0 0.0007552849710918963 0.00034079229226335883
6481000000.0 0.0006753623019903898 -5.8135137805948034e-05
6482000000.0 0.0006535082357004285 -0.00028157589258626103
6483000000.0 0.0003329376922920346 -0.000686549348756671
6484000000.0 5.691098704119213e-05 -0.000736481451895088
6485000000.0 -0.0002873617922887206 -0.0007260616403073072
6486000000.0 -0.0005628425860777497 -0.0005382097442634404
6487000000.0 -0.0007712047663517296 -0.0001919972855830565
6488000000.0 -0.0006766346050426364 0.000257410341873765
6489000000.0 -0.0005586505285464227 0.0005705614457838237
6490000000.0 -0.0002381312078796327 0.0007234319346025586
6491000000.0 0.00013995506742503494 0.000755819957703352
6492000000.0 0.00039024362922646105 0.000571971817407757
6493000000.0 0.0006423977902159095 0.00032247568015009165
6494000000.0 0.0007072772132232785 -5.339247945812531e-05
6495000000.0 0.0006262788083404303 -0.00040320452535524964
6496000000.0 0.0003386592143215239 -0.0006864866591058671
6497000000.0 9.87361345323734e-05 -0.0007822816260159016
6498000000.0 -0.0002958985569421202 -0.0007294329698197544
6499000000.0 -0.0006149340188130736 -0.0005001549143344164
6500000000.0 -0.0007760839071124792 -0.00015988251834642142
6501000000.0 -0.000849973177537322 0.00027502834564074874
6502000000.0 -0.0005249890382401645 0.0005596200935542583
6503000000.0 -0.0002896263322327286 0.0006640831124968827
6504000000.0 7.937545888125896e-05 0.0007555864285677671
6505000000.0 0.0005916425725445151 0.0006455568945966661
6506000000.0 0.0007555435295216739 0.00039382994873449206
6507000000.0 0.0008534649387001991 -7.130025915103033e-05
6508000000.0 0.0007292288937605917 -0.0004134791379328817
6509000000.0 0.00045330330613069236 -0.0006389653426595032
6510000000.0 0.00015072955284267664 -0.000853622448630631
6511000000.0 -0.00029387164977379143 -0.0007406345102936029
6512000000.0 -0.0007770994561724365 -0.0005639722803607583
6513000000.0 -0.0009076204732991755 -0.00011900664685526863
6514000000.0 -0.0009440407739020884 0.0002273821155540645
6515000000.0 -0.0006067022914066911 0.0007385424105450511
6516000000.0 -0.0002512328792363405 0.0009088381193578243
6517000000.0 0.000253738253377378 0.00092632498126477
6518000000.0 0.0006552629638463259 0.0007403331692330539
6519000000.0 0.000931648479308933 0.00042821941315196455
6520000000.0 0.000969023210927844 -5.783252345281653e-05
6521000000.0 0.0009064297773875296 -0.000506262294948101
6522000000.0 0.0005897647351957858 -0.0009541201288811862
6523000000.0 2.773636697384063e-05 -0.0010271334322169423
6524000000.0 -0.0004920743522234261 -0.0009827479952946305
6525000000.0 -0.0009426778415217996 -0.0007275438983924687
6526000000.0 -0.0011986751342192292 -4.284350870875642e-05
6527000000.0 -0.0009953647386282682 0.0005215149139985442
6528000000.0 -0.0006971993134357035 0.0009742819238454103
6529000000.0 -0.00018938365974463522 0.0012466750340536237
6530000000.0 0.0005332315340638161 0.0011464777635410428
6531000000.0 0.001045341370627284 0.0007162223919294775
6532000000.0 0.0013109510764479637 0.00023102719569578767
6533000000.0 0.001199610996991396 -0.0004928198759444058
6534000000.0 0.0007597843068651855 -0.001024929923005402
6535000000.0 0.0001555226626805961 -0.0013105077669024467
6536000000.0 -0.0004263255395926535 -0.0011019142111763358
6537000000.0 -0.0009985120268538594 -0.0006912414683029056
6538000000.0 -0.0011820298386737704 -0.00017224713519681245
6539000000.0 -0.001152919721789658 0.00048398267244920135
6540000000.0 -0.0006592015852220356 0.0009398307884112
6541000000.0 -0.0001781920436769724 0.0011358752381056547
6542000000.0 0.0002740288036875427 0.0010442649945616722
6543000000.0 0.000812510319519788 0.0007338264840655029
6544000000.0 0.0010856818407773972 0.00030959188006818295
6545000000.0 0.0010485270759090781 -0.00026646270998753607
6546000000.0 0.0007939019124023616 -0.0006817292887717485
6547000000.0 0.0003777794190682471 -0.0008859480731189251
6548000000.0 -8.962720312410966e-05 -0.0010135159827768803
6549000000.0 -0.0005983556038700044 -0.0007388133089989424
6550000000.0 -0.0008024798007681966 -0.0004120102967135608
6551000000.0 -0.0009011390502564609 4.532334060058929e-05
6552000000.0 -0.0007905362290330231 0.0003841566212940961
6553000000.0 -0.0005753057193942368 0.000785200740210712
6554000000.0 -7.83408249844797e-05 0.0009519311133772135
6555000000.0 0.00030463357688859105 0.0009171072160825133
6556000000.0 0.0007080245413817465 0.0005791086587123573
6557000000.0 0.0009168384131044149 0.00021824895520694554
6558000000.0 0.0009337530354969203 -0.0002236401051050052
6559000000.0 0.0006114098359830678 -0.000607069581747055
6560000000.0 0.00029905122937634587 -0.0007544538239017129
6561000000.0 -6.762935663573444e-05 -0.0008723928476683795
6562000000.0 -0.0004188355815131217 -0.0007299556164070964
6563000000.0 -0.000789562938734889 -0.0003402828879188746
6564000000.0 -0.0008538247202523053 -1.0966130503220484e-05
6565000000.0 -0.0007348703220486641 0.0003996787709183991
6566000000.0 -0.0004899449413642287 0.000692101486492902
6567000000.0 -0.00012669239367824048 0.0007993494509719312
6568000000.0 0.00027869961922988296 0.000807486881967634
6569000000.0 0.0007037484319880605 0.0005835774936713278
6570000000.0 0.0007973387837409973 0.00016962538938969374
6571000000.0 0.000808797194622457 -0.00021640128397848457
6572000000.0 0.0005939066759310663 -0.0005953615182079375
6573000000.0 0.00039264914812520146 -0.000799837987869978
6574000000.0 -0.00011147063196403906 -0.0008198089199140668
6575000000.0 -0.0005808847490698099 -0.000773225852753967
6576000000.0 -0.0007670092163607478 -0.00039577612187713385
6577000000.0 -0.0009192894212901592 -4.9734924687072635e-05
6578000000.0 -0.0007506009424105287 0.0004181031254120171
6579000000.0 -0.0006054125842638314 0.000794077233877033
6580000000.0 -6.491677049780264e-05 0.0010051733115687966
6581000000.0 0.00039088435005396605 0.0009233801974914968
6582000000.0 0.0007486066897399724 0.0005837769131176174
6583000000.0 0.0009284084080718458 0.00022495794110000134
6584000000.0 0.000879823521245271 -0.00030262168729677796
6585000000.0 0.0006743440753780305 -0.0006124434876255691
6586000000.0 0.00025884524802677333 -0.0009392188512720168
6587000000.0 -0.00020599225535988808 -0.001031631138175726
6588000000.0 -0.0006454615504480898 -0.0007333955727517605
6589000000.0 -0.0009132020059041679 -0.0003426434122957289
6590000000.0 -0.0009516326826997101 6.61166850477457e-05
6591000000.0 -0.0007399244932457805 0.0006472815293818712
6592000000.0 -0.0003579594485927373 0.0009742851252667606
6593000000.0 0.0001757153368089348 0.0009337636292912066
6594000000.0 0.0004685627936851233 0.0007334203110076487
6595000000.0 0.0008865518029779196 0.0005591361550614238
6596000000.0 0.0010767485946416855 1.3422602933133021e-05
6597000000.0 0.000844312715344131 -0.0005350308492779732
6598000000.0 0.0005461013643071055 -0.0008799124625511467
6599000000.0 8.199202420655638e-05 -0.0010008977260440588
6600000000.0 -0.0004044732195325196 -0.0007253920775838196
6601000000.0 -0.0007295419927686453 -0.0005699013127014041
6602000000.0 -0.0009249786380678415 -0.0001574426278239116
6603000000.0 -0.0008310091216117144 0.00038710018270649016
6604000000.0 -0.0007603311096318066 0.0006940688472241163
6605000000.0 -0.00021404687140602618 0.0008998562698252499
6606000000.0 0.00019810702360700816 0.0007803338812664151
6607000000.0 0.0006018549320288002 0.0007315938710235059
6608000000.0 0.0008185266051441431 0.00022777539561502635
6609000000.0 0.0008332294528372586 -0.00015076839190442115
6610000000.0 0.0007884032092988491 -0.0004217085661366582
6611000000.0 0.00046306889271363616 -0.0008381537045352161
6612000000.0 3.21132865792606e-05 -0.0008529675542376935
6613000000.0 -0.0002519791596569121 -0.0008561628637835383
6614000000.0 -0.0007191493059508502 -0.0005387162091210485
6615000000.0 -0.0007744921022094786 -7.159417873481289e-05
6616000000.0 -0.0008243489428423345 0.00030537034035660326
6617000000.0 -0.0005977677647024393 0.0006324002170003951
6618000000.0 -0.000231249796343036 0.0007266311440616846
6619000000.0 0.00029239736613817513 0.0008354007732123137
6620000000.0 0.0006366630550473928 0.0007656708476133645
6621000000.0 0.0007881184574216604 0.00037703930865973234
6622000000.0 0.0009643599041737616 -0.00015272293239831924
6623000000.0 0.0007309206412173808 -0.0005633663386106491
6624000000.0 0.0005567435291595757 -0.0008548775222152472
6625000000.0 -2.963381484732963e-05 -0.0009102729381993413
6626000000.0 -0.00034215522464364767 -0.0008069036994129419
6627000000.0 -0.0008535612723790109 -0.0005597022245638072
6628000000.0 -0.000988009269349277 -0.0001661574060562998
6629000000.0 -0.000926835578866303 0.0003604194207582623
6630000000.0 -0.0005504258442670107 0.0007956566987559199
6631000000.0 -0.00022226784494705498 0.0008336352766491473
6632000000.0 0.0003344335127621889 0.0009671375737525523
6633000000.0 0.0006611064891330898 0.0005875302595086396
6634000000.0 0.0009187664836645126 0.00033233012072741985
6635000000.0 0.0009938913863152266 -0.00012306701682973653
6636000000.0 0.0006012175581417978 -0.0006316726212389767
6637000000.0 0.00034805352333933115 -0.0009656450129114091
6638000000.0 -0.00027161676553077996 -0.0009160124463960528
6639000000.0 -0.0006685985717922449 -0.0007751747034490108
6640000000.0 -0.0009741197573021054 -0.00036877422826364636
6641000000.0 -0.0010299162240698934 0.00010615466453600675
6642000000.0 -0.0008644046611152589 0.0006542209885083139
6643000000.0 -0.0004786209901794791 0.0008812228916212916
6644000000.0 4.787888246937655e-05 0.0009560200269334018
6645000000.0 0.0004313402168918401 0.0008002008544281125
6646000000.0 0.0008010875317268074 0.00045470253098756075
6647000000.0 0.000882800726685673 1.3044362276559696e-05
6648000000.0 0.0008760782657191157 -0.0004448716645129025
6649000000.0 0.0005457508377730846 -0.0007674297085031867
6650000000.0 7.773486686346587e-06 -0.0008645012858323753
6651000000.0 -0.00031587944249622524 -0.0008451102185063064
6652000000.0 -0.0006654344615526497 -0.0005572712398134172
6653000000.0 -0.0008463535341434181 -0.0002093633374897763
6654000000.0 -0.0007128745201043785 0.00028625651611946523
6655000000.0 -0.0005630398518405855 0.0006327033624984324
6656000000.0 -0.00024572096299380064 0.000703102326951921
6657000000.0 6.506491627078503e-05 0.0008055007201619446
6658000000.0 0.00042104965541511774 0.0005704668583348393
6659000000.0 0.0006244122050702572 0.000311882293317467
6660000000.0 0.0007933356682769954 1.3297136320034042e-05
6661000000.0 0.0005920067778788507 -0.0003128656535409391
6662000000.0 0.00038262613816186786 -0.0006280181696638465
6663000000.0 0.00013655620568897575 -0.0007066770922392607
6664000000.0 -0.00028665707213804126 -0.0005605662008747458
6665000000.0 -0.0006146235973574221 -0.0004373638075776398
6666000000.0 -0.0006909797666594386 -0.00012031575897708535
6667000000.0 -0.0006629106355831027 0.00023235438857227564
6668000000.0 -0.0005485384026542306 0.00047496240586042404
6669000000.0 -0.0003434539248701185 0.0005803811945952475
6670000000.0 0.00015452707884833217 0.0006899917498230934
6671000000.0 0.0003254266339354217 0.00059891416458413
6672000000.0 0.0005393635365180671 0.0004078662022948265
6673000000.0 0.0006591620040126145 8.64260146045126e-05
6674000000.0 0.0007181069231592119 -0.0002257939922856167
6675000000.0 0.0004329202347435057 -0.00061619165353477
6676000000.0 0.00015073824033606797 -0.0007731413934379816
6677000000.0 -0.0002774432359728962 -0.0006530974642373621
6678000000.0 -0.0004957756609655917 -0.0004929834394715726
6679000000.0 -0.000655430369079113 -0.00025060970801860094
6680000000.0 -0.0007679538102820516 7.59116155677475e-05
6681000000.0 -0.0006034644320607185 0.0004225111042615026
6682000000.0 -0.0002785420510917902 0.0007412935374304652
6683000000.0 -6.64917824906297e-05 0.0007951034931465983
6684000000.0 0.00033338498906232417 0.0006559759494848549
6685000000.0 0.0006812636856921017 0.0003750834730453789
6686000000.0 0.0008752263383939862 0.00010864328942261636
6687000000.0 0.0007372554391622543 -0.00023202135344035923
6688000000.0 0.000699331983923912 -0.00064455671235919
6689000000.0 0.00018469426140654832 -0.0008116567623801529
6690000000.0 -0.00023635032994206995 -0.0009312730981037021
6691000000.0 -0.0006438398850150406 -0.0005473527126014233
6692000000.0 -0.0008661050233058631 -0.00029869310674257576
6693000000.0 -0.0009176314342767 0.00017546603339724243
6694000000.0 -0.0007885320810601115 0.0006754921050742269
6695000000.0 -0.0003856977273244411 0.0009729008306749165
6696000000.0 1.9134751710225828e-05 0.0009169612312689424
6697000000.0 0.0005407609278336167 0.0007638524984940886
6698000000.0 0.0008995554526336491 0.0005708222161047161
6699000000.0 0.0009441208676435053 -9.073045657714829e-05
6700000000.0 0.0008012871840037405 -0.0005058434326201677
6701000000.0 0.0007155559724196792 -0.0009098582668229938
6702000000.0 -3.441444050622522e-06 -0.0009539742604829371
6703000000.0 -0.00047272653318941593 -0.0010769693180918694
6704000000.0 -0.0008835309999994934 -0.0006355898221954703
6705000000.0 -0.0010288689518347383 -0.0001126069255406037
6706000000.0 -0.0010825371136888862 0.0004410250985529274
6707000000.0 -0.0007068352424539626 0.0008091187919490039
6708000000.0 -0.0001454057201044634 0.001166893052868545
6709000000.0 0.0003366539312992245 0.0009547486552037299
6710000000.0 0.0008203936158679426 0.0005568896885961294
6711000000.0 0.0010735902469605207 0.00017699474119581282
6712000000.0 0.0011076952796429396 -0.0002700113982427865
6713000000.0 0.0007249598857015371 -0.0008586797048337758
6714000000.0 0.00023906274873297662 -0.0010339498985558748
6715000000.0 -0.00037095791776664555 -0.0010775685077533126
6716000000.0 -0.0007785799098201096 -0.0008072681375779212
6717000000.0 -0.0008832949679344893 -0.000355887837940827
6718000000.0 -0.0009506827336736023 0.0002467003942001611
6719000000.0 -0.0008132715593092144 0.0005619606818072498
6720000000.0 -0.00021572157857008278 0.0009481653105467558
6721000000.0 9.91279594018124e-05 0.0009990213438868523
6722000000.0 0.0006024411413818598 0.0008477650699205697
6723000000.0 0.0009677277412265539 0.00044759511365555227
6724000000.0 0.0010795022826641798 -5.676695946021937e-05
6725000000.0 0.000728841288946569 -0.0005448965239338577
6726000000.0 0.0005912233027629554 -0.0009933995315805078
6727000000.0 -8.481475379085168e-05 -0.0009682155214250088
6728000000.0 -0.00047329626977443695 -0.0009920947486534715
6729000000.0 -0.000858279992826283 -0.0005399691872298717
6730000000.0 -0.0010449968976899981 1.2946395145263523e-05
6731000000.0 -0.0009707182180136442 0.00030883983708918095
6732000000.0 -0.0007119083311408758 0.0008117222459986806
6733000000.0 2.2344231183524244e-05 0.0010849183890968561
6734000000.0 0.00029009036370553076 0.0008922150009311736
6735000000.0 0.0008326868410222232 0.0006807050085626543
6736000000.0 0.0010445633670315146 0.00016624038107693195
6737000000.0 0.0010750525398179889 -0.0002447452861815691
6738000000.0 0.0006263548857532442 -0.000779643130954355
6739000000.0 0.0002550634671933949 -0.0008953696233220398
6740000000.0 -0.0003305849386379123 -0.0009780508698895574
6741000000.0 -0.0007583374972455204 -0.0006850966019555926
6742000000.0 -0.0009239536593668163 -0.0002562637091614306
6743000000.0 -0.0008958798716776073 0.0001721322478260845
6744000000.0 -0.0007093728054314852 0.000599325227085501
6745000000.0 -0.00030986647470854223 0.0008050246979109943
6746000000.0 5.605524347629398e-05 0.001010933076031506
6747000000.0 0.00044968558358959854 0.0006189055857248604
6748000000.0 0.0007987412391230464 0.00046114163706079125
6749000000.0 0.0008316600578837097 -1.3327282431419007e-05
6750000000.0 0.0007303403690457344 -0.000463674747152254
6751000000.0 0.0003105173527728766 -0.0005183655885048211
6752000000.0 9.345974103780463e-05 -0.0007466828101314604
6753000000.0 -0.00039186145295388997 -0.0006721533718518913
6754000000.0 -0.000641512218862772 -0.0003758829552680254
6755000000.0 -0.0008020794484764338 -2.154948015231639e-05
6756000000.0 -0.0005463086999952793 0.00018656454631127417
6757000000.0 -0.0004848373355343938 0.0005868360167369246
6758000000.0 -6.885034963488579e-05 0.0006181483040563762
6759000000.0 7.66574521549046e-05 0.0006338520906865597
6760000000.0 0.0005531175993382931 0.00041149582830257714
6761000000.0 0.0005772997974418104 0.00019622773106675595
6762000000.0 0.0006530056707561016 2.0508197849267162e-05
6763000000.0 0.000495085958391428 -0.0003222776867914945
6764000000.0 0.0002466795267537236 -0.00046591373393312097
6765000000.0 -3.3040476409951225e-05 -0.00046445566113106906
6766000000.0 -0.0002265788643853739 -0.00035349131212569773
6767000000.0 -0.0004387972876429558 -0.00037752988282591105
6768000000.0 -0.0005241134786047041 -5.5882588640088215e-05
6769000000.0 -0.0004733402456622571 0.00011841616651508957
6770000000.0 -0.0002719291078392416 0.00032869100687094033
6771000000.0 -0.00010534567991271615 0.0003888198407366872
6772000000.0 6.960041355341673e-05 0.00043971033301204443
6773000000.0 0.00034561866777949035 0.00045309236156754196
6774000000.0 0.0005285983788780868 4.655006341636181e-05
6775000000.0 0.00041763350600376725 -1.8752779169517453e-06
6776000000.0 0.0005131827783770859 -0.00024233944714069366
6777000000.0 0.0002332090662093833 -0.0004979621153324842
6778000000.0 2.7408312234911136e-05 -0.0005554164526984096
6779000000.0 -0.00016593019245192409 -0.0005257981247268617
6780000000.0 -0.00033314013853669167 -0.00029434042517095804
6781000000.0 -0.0005968966870568693 -7.818956510163844e-05
6782000000.0 -0.0004803566844202578 0.00011811696458607912
6783000000.0 -0.00040847776108421385 0.0002826986601576209
6784000000.0 -0.00021068676142022014 0.000345864420523867
6785000000.0 0.00011153068771818653 0.0005424803239293396
6786000000.0 0.0002927865425590426 0.0003855364047922194
6787000000.0 0.00044989094021730125 0.0004023048095405102
6788000000.0 0.0005916293011978269 0.00010118473437614739
6789000000.0 0.000505685165990144 -0.0001755521952873096
6790000000.0 0.0002943231665994972 -0.0004261329013388604
6791000000.0 4.687219188781455e-05 -0.0006298928637988865
6792000000.0 -8.540882845409214e-05 -0.00045224721543490887
6793000000.0 -0.00040932957199402153 -0.0003534957650117576
6794000000.0 -0.0004988678265362978 -0.0003090607060585171
6795000000.0 -0.00047301893937401474 -3.355172520969063e-05
6796000000.0 -0.0004983192193321884 0.00037104508373886347
6797000000.0 -0.0002967531036119908 0.000639784149825573
6798000000.0 -3.588979598134756e-05 0.000624084728769958
6799000000.0 0.0004088715941179544 0.00047716437256895006
6800000000.0 0.0004705364117398858 0.0004739386204164475
6801000000.0 0.0007367940270341933 0.00010472617577761412
6802000000.0 0.0006015149410814047 -0.0002756686881184578
6803000000.0 0.0002867259318009019 -0.00044855650048702955
6804000000.0 3.834809467662126e-05 -0.0006492860848084092
6805000000.0 -0.0003829927300103009 -0.000604308967012912
6806000000.0 -0.0006056490819901228 -0.00045680097537115216
6807000000.0 -0.000696182600222528 -0.00010382701293565333
6808000000.0 -0.00067392602795735 0.00023368929396383464
6809000000.0 -0.0005590495420619845 0.0004897571634501219
6810000000.0 -0.0001051008584909141 0.0007362438482232392
6811000000.0 0.0002482296258676797 0.0006812004721723497
6812000000.0 0.0005125859752297401 0.0005041951662860811
6813000000.0 0.0006859417771920562 0.00038051133742555976
6814000000.0 0.0008060041582211852 -8.443382102996111e-05
6815000000.0 0.00047174858627840877 -0.0004819683963432908
6816000000.0 0.000274178251856938 -0.0006958782905712724
6817000000.0 -0.00022104164236225188 -0.0006713013863191009
6818000000.0 -0.00038908584974706173 -0.0007187011651694775
6819000000.0 -0.0004853628051932901 -0.00035073523758910596
6820000000.0 -0.0007890400593169034 5.558938573813066e-05
6821000000.0 -0.0007463329238817096 0.0004936690093018115
6822000000.0 -0.0004334079276304692 0.0006724550621584058
6823000000.0 -1.955428160727024e-05 0.0006861783913336694
6824000000.0 0.0003243368992116302 0.0006708895089104772
6825000000.0 0.0007214348879642785 0.00032817941973917186
6826000000.0 0.0008037079824134707 -4.459616775420727e-06
6827000000.0 0.0006094120908528566 -0.00012757079093717039
6828000000.0 0.00035092781763523817 -0.0005536990938708186
6829000000.0 0.00010812150139827281 -0.0006308488664217293
6830000000.0 -0.0002147735795006156 -0.0008319081971421838
6831000000.0 -0.0005799777572974563 -0.0006554198334924877
6832000000.0 -0.0007387252408079803 -0.0002289785916218534
6833000000.0 -0.0007634840440005064 0.0001782174949767068
6834000000.0 -0.0005217767902649939 0.0003825432213488966
6835000000.0 -0.0004490031278692186 0.0007499804487451911
6836000000.0 4.4100615923525766e-05 0.0008120646816678345
6837000000.0 0.0003357706591486931 0.0007516046171076596
6838000000.0 0.0006879236898384988 0.0004605111025739461
6839000000.0 0.0008990009664557874 0.00017442929674871266
6840000000.0 0.0007787892827764153 -0.00043617896153591573
6841000000.0 0.0005245620850473642 -0.0007472672732546926
6842000000.0 8.347989677304213e-08 -0.0010138379875570536
6843000000.0 -0.0004543490649666637 -0.0006643611122854054
6844000000.0 -0.0005986831965856254 -0.0005932867061346769
6845000000.0 -0.0007997332140803337 -0.00027318851789459586
6846000000.0 -0.0009525985806249082 0.00032398392795585096
6847000000.0 -0.0006721022655256093 0.000571683922316879
6848000000.0 -0.000384745275368914 0.0010128930443897843
6849000000.0 0.00020650899386964738 0.0010865336516872048
6850000000.0 0.0006662700907327235 0.0005791631410829723
6851000000.0 0.0008529951446689665 0.0003836641553789377
6852000000.0 0.0009777662344276905 -0.0003431379736866802
6853000000.0 0.0008407653076574206 -0.0006363836582750082
6854000000.0 0.00032347641536034644 -0.0009760034736245871
6855000000.0 -0.0004164453421253711 -0.0009352052584290504
6856000000.0 -0.0007625163998454809 -0.0007579834782518446
6857000000.0 -0.0008734976290725172 -0.0003399494453333318
6858000000.0 -0.0008494352223351598 0.00020589196356013417
6859000000.0 -0.0008576269028708339 0.0006200173520483077
6860000000.0 -0.00019530218560248613 0.0010629526805132627
6861000000.0 0.00018876545072998852 0.0009230711730197072
6862000000.0 0.0006867082556709647 0.0007687864126637578
6863000000.0 0.0008943590801209211 0.00041345180943608284
6864000000.0 0.0010258391266688704 -0.0002463824930600822
6865000000.0 0.0007764328038319945 -0.00044198823161423206
6866000000.0 0.00032847750117070973 -0.0006957473233342171
6867000000.0 -1.8292723780177766e-06 -0.0008505318546667695
6868000000.0 -0.0006361028645187616 -0.0007683506119064987
6869000000.0 -0.0009065495687536895 -0.00035501940874382854
6870000000.0 -0.0008811969310045242 -3.133186328341253e-05
6871000000.0 -0.0006780140101909637 0.0003056487475987524
6872000000.0 -0.0004332891257945448 0.0006944843917153776
6873000000.0 -6.3082225096877664e-06 0.000681003206409514
6874000000.0 0.00024541898164898157 0.0006088410154916346
6875000000.0 0.0005503976135514677 0.0005730476113967597
6876000000.0 0.000625885440967977 0.00012674224853981286
6877000000.0 0.0008076331578195095 -0.00023609856725670397
6878000000.0 0.0003352377098053694 -0.0004712272493634373
6879000000.0 0.00022848756634630263 -0.0007586583960801363
6880000000.0 -0.0001878255425253883 -0.0006780613330192864
6881000000.0 -0.00044686460751108825 -0.0005367108387872577
6882000000.0 -0.0006754024652764201 -0.0002881871478166431
6883000000.0 -0.0006767850718460977 0.00010624552669469267
6884000000.0 -0.0004993825568817556 0.0003129906253889203
6885000000.0 -0.0005273992428556085 0.0006220811046659946
6886000000.0 0.00011925042781513184 0.0007314308895729482
6887000000.0 0.0002470733888912946 0.0008562855655327439
6888000000.0 0.0006187972030602396 0.0004355213895905763
6889000000.0 0.000615533092059195 0.00016780485748313367
6890000000.0 0.0006870595971122384 -0.00015105480269994587
6891000000.0 0.0005325728561729193 -0.0006452123634517193
6892000000.0 0.00017836577899288386 -0.0007122824899852276
6893000000.0 -0.00016090784629341215 -0.0007675836677663028
6894000000.0 -0.0004790721577592194 -0.0006110276444815099
6895000000.0 -0.0006446570041589439 -0.00040997829637490213
6896000000.0 -0.0006505195051431656 9.0688445197884e-05
6897000000.0 -0.0007081885123625398 0.0005293994909152389
6898000000.0 -0.000284698762698099 0.0007439881446771324
6899000000.0 -3.136560553684831e-05 0.0006130490801297128
6900000000.0 0.000551817414816469 0.0006113897543400526
6901000000.0 0.0006155854789540172 0.00027934869285672903
6902000000.0 0.0007832343690097332 -7.944907702039927e-05
6903000000.0 0.0007185744470916688 -0.0002893924538511783
6904000000.0 0.0005818060599267483 -0.0006401596474461257
6905000000.0 0.00013419296010397375 -0.0007992750615812838
6906000000.0 -0.00033996778074651957 -0.00068477081367746
6907000000.0 -0.0005583221209235489 -0.00033273902954533696
6908000000.0 -0.0007587955333292484 -0.0001623577845748514
6909000000.0 -0.0007790667004883289 0.00022222116240300238
6910000000.0 -0.0006583852227777243 0.0006386653985828161
6911000000.0 -0.00011298194294795394 0.0006796341622248292
6912000000.0 2.669040986802429e-05 0.0007132890750654042
6913000000.0 0.0005507008172571659 0.000486147531773895
6914000000.0 0.0005904125864617527 0.00021221477072685957
6915000000.0 0.0007826834334991872 -2.8842123356298544e-06
6916000000.0 0.0005879363743588328 -0.0004021876084152609
6917000000.0 0.0003896380658261478 -0.0006196220638230443
6918000000.0 -3.744850982911885e-05 -0.0008558608242310584
6919000000.0 -0.00038561629480682313 -0.0007508246344514191
6920000000.0 -0.0006414243252947927 -0.0003806564782280475
6921000000.0 -0.0006764524150639772 -5.959306872682646e-05
6922000000.0 -0.0006640414940193295 0.0003174938610754907
6923000000.0 -0.0004760313604492694 0.00058821274433285
6924000000.0 -0.0002068650210276246 0.0007420447072945535
6925000000.0 0.0001355342974420637 0.000576583668589592
6926000000.0 0.0005285712541081011 0.0005715268198400736
6927000000.0 0.000572644523344934 0.0001839593896875158
6928000000.0 0.0006230157450772822 -0.0001074801039067097
6929000000.0 0.00047898321645334363 -0.00033146224450320005
6930000000.0 0.00025780522264540195 -0.0006809717742726207
6931000000.0 6.767546437913552e-05 -0.0006318933446891606
6932000000.0 -0.0003131685662083328 -0.0005678616580553353
6933000000.0 -0.0003955423890147358 -0.00027163169579580426
6934000000.0 -0.0006336044170893729 -9.433022205485031e-05
6935000000.0 -0.0006869673379696906 0.00032486769487150013
6936000000.0 -0.0004125829436816275 0.0005658442969433963
6937000000.0 -0.00020661998132709414 0.0005913148634135723
6938000000.0 0.00019488303223624825 0.0005992620135657489
6939000000.0 0.00046396334073506296 0.00042783282697200775
6940000000.0 0.0005987014155834913 0.000258061132626608
6941000000.0 0.0005339976050890982 -3.371808634256013e-05
6942000000.0 0.0006429257337003946 -0.0003292015171609819
6943000000.0 0.00028023618506267667 -0.000660486810375005
6944000000.0 -3.51758353644982e-05 -0.0006395844975486398
6945000000.0 -0.00019805383635684848 -0.0005704972427338362
6946000000.0 -0.0005982356378808618 -0.0005182615714147687
6947000000.0 -0.0006542308256030083 -6.9342936512839515e-06
6948000000.0 -0.0006436563562601805 0.00018141166947316378
6949000000.0 -0.0005218487931415439 0.0004962595412507653
6950000000.0 -0.00030863896245136857 0.0005847573629580438
6951000000.0 7.584178092656657e-05 0.0007264491869136691
6952000000.0 0.0005012266337871552 0.0006734248017892241
6953000000.0 0.0005814493051730096 0.0002803830720949918
6954000000.0 0.0007367321522906423 5.087849217488838e-07
6955000000.0 0.0007135507185012102 -0.0003807019966188818
6956000000.0 0.00041824570507742465 -0.0006658393540419638
6957000000.0 0.0001360453898087144 -0.0008892532787285745
6958000000.0 -0.00034481383045203984 -0.0006428873166441917
6959000000.0 -0.0006984484498389065 -0.00048433494521304965
6960000000.0 -0.0008189671207219362 -0.00011892332986462861
6961000000.0 -0.0007297839038074017 0.00027583466726355255
6962000000.0 -0.0005879609961993992 0.000711302156560123
6963000000.0 -0.00013276842946652323 0.0008378294296562672
6964000000.0 0.0003589582338463515 0.0007817646255716681
6965000000.0 0.0005997910047881305 0.0006407655891962349
6966000000.0 0.0008958258549682796 0.0002373146271565929
6967000000.0 0.00095173972658813 -0.0002501221024431288
6968000000.0 0.0006805366720072925 -0.0007838326273486018
6969000000.0 0.00023719634918961674 -0.0008994379895739257
6970000000.0 -0.00018577468290459365 -0.0009138406603597105
6971000000.0 -0.0006307355361059308 -0.0006679004291072488
6972000000.0 -0.0009034469840116799 -0.0002434175694361329
6973000000.0 -0.0009256740449927747 5.29349890712183e-05
6974000000.0 -0.0006489393417723477 0.0004921411164104939
6975000000.0 -0.0003751486074179411 0.0009710092563182116
6976000000.0 0.00016981166845653206 0.0008848214638419449
6977000000.0 0.0004044080269522965 0.0006903570028953254
6978000000.0 0.0008166942279785872 0.0003426403854973614
6979000000.0 0.0008613067911937833 -2.1600000764010474e-05
6980000000.0 0.0007890361594036222 -0.0004967030836269259
6981000000.0 0.00046559330075979233 -0.0007556449272669852
6982000000.0 0.00011520369298523292 -0.0008039312087930739
6983000000.0 -0.00040096379234455526 -0.0007862189668230712
6984000000.0 -0.0007029183907434344 -0.0005618279683403671
6985000000.0 -0.0007456131861545146 -0.00018346183060202748
6986000000.0 -0.0008001509122550488 0.0002788699930533767
6987000000.0 -0.0005465186550281942 0.0006541147013194859
6988000000.0 -0.00024541773018427193 0.0008838821086101234
6989000000.0 0.00029965105932205915 0.0007492892327718437
6990000000.0 0.0005188327631913126 0.0006456830888055265
6991000000.0 0.0007959684589877725 0.00028688900056295097
6992000000.0 0.0006663973908871412 -3.700067463796586e-05
6993000000.0 0.0007055234163999557 -0.00042538699926808476
6994000000.0 0.00032290254603140056 -0.0007944327662698925
6995000000.0 6.594224396394566e-05 -0.0007622933480888605
6996000000.0 -0.0001774393895175308 -0.0006809821934439242
6997000000.0 -0.0006414837553165853 -0.00045154575491324067
6998000000.0 -0.0008271600818261504 -0.00017140302225016057
6999000000.0 -0.000817584281321615 0.0002752913860604167
7000000000.0 -0.0005463151028379798 0.0005488632014021277
