! Created with skrf 1.10.0 (http://scikit-rf.org).
# Hz S RI R 50.0 
!freq ReS11 ImS11
!
4000000000.0 0.0025076058227568865 0.0004732190864160657
4004000000.0 -0.0008310406701639295 -0.0028196610510349274
4008000000.0 -0.0023190928623080254 0.0015963446348905563
4012000000.0 0.002559761283919215 0.0015234890161082149
4016000000.0 0.0002468047896400094 -0.0027423882856965065
4020000000.0 -0.0025221637915819883 0.0005575052346102893
4024000000.0 0.0014285952784121037 0.0021874266676604748
4028000000.0 0.0017628648784011602 -0.0021372379269450903
4032000000.0 -0.002539600944146514 -0.0006462708115577698
4036000000.0 0.0004413765564095229 0.0024463392328470945
4040000000.0 0.0022112554870545864 -0.0012857072288170457
4044000000.0 -0.001958718989044428 -0.0017407356062904
4048000000.0 -0.0008182127494364977 0.002465097699314356
4052000000.0 0.0027720534708350897 -0.0002174647233914584
4056000000.0 -0.0009390970226377249 -0.002545763971284032
4060000000.0 -0.0018204163061454892 0.0017423564568161964
4064000000.0 0.002423306228592992 0.0011170889483764768
4068000000.0 -0.00011490354518173262 -0.00243262923322618
4072000000.0 -0.0024930888321250677 0.0012585464864969254
4076000000.0 0.001830170163884759 0.0016608560690656304
4080000000.0 0.0007701310096308589 -0.0024065033067017794
4084000000.0 -0.0027086478658020496 0.00031213994952850044
4088000000.0 0.0011222049361094832 0.0023828784469515085
4092000000.0 0.001388882054015994 -0.00217939680442214
4096000000.0 -0.002397271804511547 -0.0004986226558685303
4100000000.0 0.00046622665831819177 0.00220888527110219
4104000000.0 0.0017276611179113388 -0.001025187666527927
4108000000.0 -0.0015711644664406776 -0.0011717112502083182
4112000000.0 -0.0005772884469479322 0.0018424559384584427
4116000000.0 0.001592857064679265 5.3618798119714484e-05
4120000000.0 -0.0005706293741241097 -0.0016474558506160975
4124000000.0 -0.0012805098667740822 0.0008196926210075617
4128000000.0 0.001277404255233705 0.0010079751955345273
4132000000.0 0.0005045587313361466 -0.0015594289870932698
4136000000.0 -0.0015853147488087416 -9.636798495193943e-05
4140000000.0 0.0003312745539005846 0.0015172174898907542
4144000000.0 0.001408979413099587 -0.000913518073502928
4148000000.0 -0.001379466149955988 -0.0009481253800913692
4152000000.0 -0.0004901087959297001 0.0017388429259881377
4156000000.0 0.0017635930562391877 -0.0002164605975849554
4160000000.0 -0.0009249913273379207 -0.0019260381814092398
4164000000.0 -0.0014034508494660258 0.0015179660404101014
4168000000.0 0.0020276797004044056 0.0008500084513798356
4172000000.0 -1.6883057469385676e-05 -0.002063818508759141
4176000000.0 -0.0021760682575404644 0.0006909468793310225
4180000000.0 0.0016504903323948383 0.0014874929329380393
4184000000.0 0.0011559813283383846 -0.0020776388701051474
4188000000.0 -0.0023159810807555914 -0.00012306949065532535
4192000000.0 0.0006560977199114859 0.0021753241308033466
4196000000.0 0.001669277437031269 -0.0011185590410605073
4200000000.0 -0.0017695054411888123 -0.0013233876088634133
4204000000.0 -0.0007812124094925821 0.0024802449624985456
4208000000.0 0.002463666256517172 -0.00017657810531090945
4212000000.0 -0.0010295565007254481 -0.002307761926203966
4216000000.0 -0.0016500428318977356 0.0016418301966041327
4220000000.0 0.0023816952016204596 0.001003237091936171
4224000000.0 -0.0001023122895276174 -0.00324775418266654
4228000000.0 -0.0027841993141919374 0.0011223794426769018
4232000000.0 0.00218786858022213 0.002201235154643655
4236000000.0 0.0011462555266916752 -0.002941118087619543
4240000000.0 -0.00319454213604331 -7.503492815885693e-05
4244000000.0 0.0013394124107435346 0.002606082009151578
4248000000.0 0.001953226514160633 -0.0024910224601626396
4252000000.0 -0.0030023835133761168 -0.0009183224174194038
4256000000.0 0.0002208159421570599 0.0031358511187136173
4260000000.0 0.0024800554383546114 -0.0015188410179689527
4264000000.0 -0.0017972372006624937 -0.001763767097145319
4268000000.0 -0.0008975762175396085 0.002758375369012356
4272000000.0 0.0027107051573693752 -0.0002338663034606725
4276000000.0 -0.0006602259818464518 -0.0022875790018588305
4280000000.0 -0.0015376139199361205 0.0017137844115495682
4284000000.0 0.0020493227057158947 0.0007733209640718997
4288000000.0 0.0001527512213215232 -0.002448615152388811
4292000000.0 -0.002128220396116376 0.00046263920376077294
4296000000.0 0.001417434774339199 0.0020372914150357246
4300000000.0 0.0013414355926215649 -0.0019410308450460434
4304000000.0 -0.0025292199570685625 -0.0004844880604650825
4308000000.0 0.0004479953204281628 0.00205752975307405
4312000000.0 0.0021957659628242254 -0.0009399331756867468
4316000000.0 -0.001507319393567741 -0.0018183731008321047
4320000000.0 -0.0012133819982409477 0.0019830772653222084
4324000000.0 0.0025878497399389744 0.00010976548946928233
4328000000.0 -0.0009009149507619441 -0.00214967830106616
4332000000.0 -0.0019076853059232235 0.001325693796388805
4336000000.0 0.002142303390428424 0.0012527478393167257
4340000000.0 0.00013691472122445703 -0.00193012913223356
4344000000.0 -0.0021571130491793156 0.00010918434418272227
4348000000.0 0.0013482298236340284 0.0015298397047445178
4352000000.0 0.0005671574617736042 -0.0014289426617324352
4356000000.0 -0.002024796325713396 -0.0006379613769240677
4360000000.0 -0.00012723682448267937 0.0017977600218728185
4364000000.0 0.0022888951934874058 -0.0010145555716007948
4368000000.0 -0.00121780124027282 -0.0015403495635837317
4372000000.0 -0.0008250154205597937 0.001975689548999071
4376000000.0 0.0020347670651972294 0.000550915312487632
4380000000.0 -0.0005182938766665757 -0.0019222155679017305
4384000000.0 -0.0019443706842139363 0.0012551319086924195
4388000000.0 0.0018781292019411922 0.001727118855342269
4392000000.0 0.0009699426009319723 -0.0022744101006537676
4396000000.0 -0.00251594977453351 -0.0002476447552908212
4400000000.0 0.0010238558752462268 0.0023777391761541367
4404000000.0 0.0019479539478197694 -0.0018490598304197192
4408000000.0 -0.002895614830777049 -0.0011314043076708913
4412000000.0 0.00024956310517154634 0.00285656307823956
4416000000.0 0.002439800649881363 -0.0014914041385054588
4420000000.0 -0.0021710903383791447 -0.0015570317627862096
4424000000.0 -0.0004961640224792063 0.0024539725854992867
4428000000.0 0.002611033618450165 6.018325802870095e-05
4432000000.0 -0.0012016263790428638 -0.0019842335022985935
4436000000.0 -0.001447399496100843 0.0017189061036333442
4440000000.0 0.0018848625477403402 0.0008816007757559419
4444000000.0 3.713918704306707e-05 -0.001754377386532724
4448000000.0 -0.001510321511887014 0.00034427890204824507
4452000000.0 0.0009524410706944764 0.0014713186537846923
4456000000.0 0.001130180316977203 -0.0021949608344584703
4460000000.0 -0.0023465589620172977 -0.0007154684863053262
4464000000.0 0.00016188011795748025 0.0020790284033864737
4468000000.0 0.0021162093617022038 -0.000933781499043107
4472000000.0 -0.0017567273462191224 -0.001463384716771543
4476000000.0 -0.0004651617491617799 0.0023664813488721848
4480000000.0 0.0022167018614709377 -0.00025803098105825484
4484000000.0 -0.0017176063265651464 -0.0018386368174105883
4488000000.0 -0.0011287498055025935 0.002352460753172636
4492000000.0 0.0019629390444606543 -4.229884143569507e-05
4496000000.0 -0.0007100182701833546 -0.0015453263185918331
4500000000.0 -0.0014656198909506202 0.0009566550143063068
4504000000.0 0.0015322499675676227 0.0008878823718987405
4508000000.0 4.426043687999481e-06 -0.001545340521261096
4512000000.0 -0.0018342372495681047 -8.75438709044829e-05
4516000000.0 0.0008743821526877582 0.001068345969542861
4520000000.0 0.001080045709386468 -0.0011944641591981053
4524000000.0 -0.0013472670689225197 -0.0005157317500561476
4528000000.0 -0.0002485821896698326 0.001733603305183351
4532000000.0 0.0015996048459783196 -0.0004572742327582091
4536000000.0 -0.001126051414757967 -0.0010495992610231042
4540000000.0 -0.0005567221087403595 0.000943024002481252
4544000000.0 0.0014250242384150624 0.0007207157905213535
4548000000.0 0.00019982205412816256 -0.0012740852544084191
4552000000.0 -0.0015659425407648087 0.0003061582974623889
4556000000.0 0.0008211368112824857 0.0009567952365614474
4560000000.0 0.0007045228267088532 -0.001552361180074513
4564000000.0 -0.0018753879703581333 0.00014577354886569083
4568000000.0 0.0009702545939944685 0.0017768023535609245
4572000000.0 0.0012512013781815767 -0.0008050710312090814
4576000000.0 -0.0016252798959612846 -0.0006140564801171422
4580000000.0 -1.354339656245429e-05 0.0013844460481777787
4584000000.0 0.001587746082805097 -0.00019572932797018439
4588000000.0 -0.0013224645517766476 -0.0016378008294850588
4592000000.0 -0.0009467942873016 0.0015280060470104218
4596000000.0 0.002008007373660803 0.00018584080680739135
4600000000.0 -0.000427752936957404 -0.0018132857512682676
4604000000.0 -0.0013438474852591753 0.0012334706261754036
4608000000.0 0.001804317464120686 0.00142606720328331
4612000000.0 0.00020126854360569268 -0.0020132337231189013
4616000000.0 -0.0022085378877818584 0.0004902119981124997
4620000000.0 0.0012117763981223106 0.0014698706800118089
4624000000.0 0.0009307216969318688 -0.001901398878544569
4628000000.0 -0.0020953549537807703 -0.0005558579578064382
4632000000.0 0.0004935245378874242 0.0017359647899866104
4636000000.0 0.0017302758060395718 -0.0008747401880100369
4640000000.0 -0.0016617996152490377 -0.001595448236912489
4644000000.0 -0.0006844020099379122 0.0026874840259552
4648000000.0 0.0024372769985347986 -0.00030528937350027263
4652000000.0 -0.0013328021159395576 -0.002049493370577693
4656000000.0 -0.0011695383582264185 0.0019513486186042428
4660000000.0 0.002282233675941825 0.0002904673165176064
4664000000.0 -0.0003181026258971542 -0.002224709838628769
4668000000.0 -0.0018243477679789066 0.0010680488776415586
4672000000.0 0.0016888027312234044 0.0011991187930107117
4676000000.0 9.352017514174804e-05 -0.0019976827315986156
4680000000.0 -0.0019008413655683398 0.00024215731536969543
4684000000.0 0.0010464454535394907 0.0016109056305140257
4688000000.0 0.0013481475180014968 -0.0013567155692726374
4692000000.0 -0.0016427041264250875 -0.00044641256681643426
4696000000.0 7.77657114667818e-05 0.0019181983079761267
4700000000.0 0.00181438063737005 -0.0004986457643099129
4704000000.0 -0.001339012524113059 -0.0011071389308199286
4708000000.0 -0.0009145819349214435 0.0016485359519720078
4712000000.0 0.0018937487620860338 0.0003351978666614741
4716000000.0 -0.00030214188154786825 -0.0019155357731506228
4720000000.0 -0.0013420936884358525 0.0011097328970208764
4724000000.0 0.0015173688298091292 0.0007726771291345358
4728000000.0 0.0004987966967746615 -0.0016712254146113992
4732000000.0 -0.0016136296326294541 0.00022754394740331918
4736000000.0 0.0007536144112236798 0.0013644887367263436
4740000000.0 0.0008811290608718991 -0.0011669719824567437
4744000000.0 -0.001455851597711444 -0.0004080854123458266
4748000000.0 4.866259769187309e-05 0.001431926037184894
4752000000.0 0.001250821864232421 -0.0007028625695966184
4756000000.0 -0.0009490399970673025 -0.0013137313071638346
4760000000.0 -0.0006475567352026701 0.001481630140915513
4764000000.0 0.0017094174399971962 0.0005221267929300666
4768000000.0 -0.00025791683583520353 -0.0016805193154141307
4772000000.0 -0.0015461414586752653 0.000739018025342375
4776000000.0 0.0014743800275027752 0.0010822420008480549
4780000000.0 0.0006667146808467805 -0.0018515451811254025
4784000000.0 -0.001772379269823432 0.00019377365242689848
4788000000.0 0.0008011909085325897 0.0020394267048686743
4792000000.0 0.0015242918161675334 -0.0017082185950130224
4796000000.0 -0.0018291432643309236 -0.0009484387119300663
4800000000.0 -0.0001247884356416762 0.002219884190708399
4804000000.0 0.0021349326707422733 -0.0003109202953055501
4808000000.0 -0.0011745755327865481 -0.001682315836660564
4812000000.0 -0.001209857640787959 0.001955030718818307
4816000000.0 0.0020957719534635544 0.0006523735937662423
4820000000.0 -0.0003261863312218338 -0.0022612721659243107
4824000000.0 -0.0022258793469518423 0.001462539192289114
4828000000.0 0.001804723753593862 0.0015164209762588143
4832000000.0 0.0005869457381777465 -0.0023160031996667385
4836000000.0 -0.0024844883009791374 0.00022964274103287607
4840000000.0 0.0010534251341596246 0.002030635252594948
4844000000.0 0.0013946938561275601 -0.001910578808747232
4848000000.0 -0.001987188821658492 -0.0008328799158334732
4852000000.0 0.00016031423001550138 0.0021503842435777187
4856000000.0 0.0021994728595018387 -0.0011227348586544394
4860000000.0 -0.0015682133380323648 -0.0016624582931399345
4864000000.0 -0.0007552194874733686 0.002287108451128006
4868000000.0 0.0023224572651088238 5.3685795137425885e-05
4872000000.0 -0.0010999509831890464 -0.0020519548561424017
4876000000.0 -0.0012332951882854104 0.0019172080792486668
4880000000.0 0.0021460342686623335 0.0005511793424375355
4884000000.0 -0.0004701209254562855 -0.0021028860937803984
4888000000.0 -0.0016054559964686632 0.0012129622045904398
4892000000.0 0.001481607323512435 0.0011203847825527191
4896000000.0 0.0006289033917710185 -0.0016315530519932508
4900000000.0 -0.0018472711089998484 9.872369992081076e-05
4904000000.0 0.0006640406791120768 0.0014114459045231342
4908000000.0 0.0009343023994006217 -0.0010495976312085986
4912000000.0 -0.0013371441746130586 -0.0003692439931910485
4916000000.0 -0.00018288471619598567 0.0013102852972224355
4920000000.0 0.0012770057655870914 -0.000382415164494887
4924000000.0 -0.0006707509164698422 -0.0009017642587423325
4928000000.0 -0.0010322376620024443 0.0008799596689641476
4932000000.0 0.0011437622597441077 0.0005999865825287998
4936000000.0 0.00018292733875568956 -0.0012782488483935595
4940000000.0 -0.0014544666046276689 0.0001824262726586312
4944000000.0 0.0006317570223473012 0.001016114722006023
4948000000.0 0.0008325741509906948 -0.000986952567473054
4952000000.0 -0.0012362133711576462 -0.0005369136924855411
4956000000.0 -3.289271626272239e-05 0.0014975514495745301
4960000000.0 0.0014051548205316067 -0.00046949717216193676
4964000000.0 -0.0008952973294071853 -0.0012139257742092013
4968000000.0 -0.0007737906416878104 0.0013906201347708702
4972000000.0 0.0015813233330845833 0.00015872306539677083
4976000000.0 -0.0004783783806487918 -0.001626699697226286
4980000000.0 -0.0013103327946737409 0.0010948124108836055
4984000000.0 0.001478726277127862 0.0008238200680352747
4988000000.0 0.00037939901812933385 -0.0018260296201333404
4992000000.0 -0.0016386674251407385 0.0002968636399600655
4996000000.0 0.0011060013202950358 0.0014524441212415695
5000000000.0 0.0009310046443715692 -0.0014796449104323983
5004000000.0 -0.001798198907636106 -0.000376027513993904
5008000000.0 0.00025960479979403317 0.0019302115542814136
5012000000.0 0.0015542850596830249 -0.0009504785411991179
5016000000.0 -0.0013834518613293767 -0.001043839962221682
5020000000.0 -0.0004898321349173784 0.0017545120790600777
5024000000.0 0.0020490013994276524 -3.657638080767356e-05
5028000000.0 -0.0011893203482031822 -0.0016401568427681923
5032000000.0 -0.0010796047281473875 0.0014091343618929386
5036000000.0 0.0019985774997621775 0.0006284086848609149
5040000000.0 -0.000550314667634666 -0.0019398744916543365
5044000000.0 -0.0017946611624211073 0.0009156052838079631
5048000000.0 0.001498210127465427 0.0011932170018553734
5052000000.0 0.0003382114227861166 -0.0020197459962219
5056000000.0 -0.001751694711856544 0.00039439427200704813
5060000000.0 0.001464863307774067 0.0016520286444574594
5064000000.0 0.0007977830246090889 -0.001763148931786418
5068000000.0 -0.0016780417645350099 0.0002835762861650437
5072000000.0 0.0007033357978798449 0.0014348491095006466
5076000000.0 0.0012340156827121973 -0.00115770916454494
5080000000.0 -0.00136169558390975 -0.0008314847946166992
5084000000.0 -0.0001700160064501688 0.0016081769717857242
5088000000.0 0.0012909374199807644 -0.00026338634779676795
5092000000.0 -0.0009218795457854867 -0.0009958765003830194
5096000000.0 -0.0010485590901225805 0.001233097049407661
5100000000.0 0.0012064108159393072 0.0005107030156068504
5104000000.0 -2.4900564312702045e-05 -0.0013453168794512749
5108000000.0 -0.0012701344676315784 0.00031839616713114083
5112000000.0 0.0011065598810091615 0.0010943703819066286
5116000000.0 0.0006603563670068979 -0.0009092126856558025
5120000000.0 -0.0016302954172715545 6.124442734289914e-05
5124000000.0 0.0002735656453296542 0.0018425827147439122
5128000000.0 0.001273136818781495 -0.0009246231056749821
5132000000.0 -0.0014156948309391737 -0.0010376842692494392
5136000000.0 -0.00026353183784522116 0.0017230729572474957
5140000000.0 0.0015205934178084135 6.30868089501746e-06
5144000000.0 -0.0007198381936177611 -0.0012127601075917482
5148000000.0 -0.0008809812134131789 0.0009567729430273175
5152000000.0 0.001180910738185048 0.0008237132569774985
5156000000.0 -0.00024281149671878666 -0.0016921485075727105
5160000000.0 -0.001490312279202044 0.00032814688165672123
5164000000.0 0.0008615353144705296 0.0008545350283384323
5168000000.0 0.0008696725708432496 -0.0010562100214883685
5172000000.0 -0.0013169994344934821 -0.000233056241995655
5176000000.0 0.00034112660796381533 0.0014848839491605759
5180000000.0 0.0010810049716383219 -0.0007682153373025358
5184000000.0 -0.0015792098129168153 -0.0008992470684461296
5188000000.0 -0.000574976671487093 0.0014693625271320343
5192000000.0 0.00160247553139925 0.0001282938610529527
5196000000.0 -0.0007534162723459303 -0.0016178463120013475
5200000000.0 -0.0011027423897758126 0.0014176365220919251
5204000000.0 0.001621335162781179 0.0006538440356962383
5208000000.0 -4.095985786989331e-05 -0.0020026525016874075
5212000000.0 -0.0018026246689260006 0.0007564423722214997
5216000000.0 0.0010316375410184264 0.0016576219350099564
5220000000.0 0.0006319584208540618 -0.0015807219315320253
5224000000.0 -0.0019056815654039383 0.00012669377611018717
5228000000.0 0.00042607117211446166 0.001970472978428006
5232000000.0 0.0014866491546854377 -0.0014217204879969358
5236000000.0 -0.0017191082006320357 -0.0009445747127756476
5240000000.0 -0.0004110489971935749 0.0021721397060900927
5244000000.0 0.0019446889637038112 -0.0005125816678628325
5248000000.0 -0.0013913753209635615 -0.0015034786192700267
5252000000.0 -0.0012049917131662369 0.0017802438233047724
5256000000.0 0.0019032761920243502 0.0003096963046118617
5260000000.0 -0.0003130744444206357 -0.0017259723972529173
5264000000.0 -0.0018920423462986946 0.001135616796091199
5268000000.0 0.0017580947605893016 0.0013146096607670188
5272000000.0 0.00036517015541903675 -0.002062195912003517
5276000000.0 -0.0019044856308028102 0.00035327067598700523
5280000000.0 0.0008643919136375189 0.001715269172564149
5284000000.0 0.0012011280050501227 -0.001806089305318892
5288000000.0 -0.0018055933760479093 -0.00037583813536912203
5292000000.0 0.00024907762417569757 0.001854162779636681
5296000000.0 0.0016000386094674468 -0.0009842729195952415
5300000000.0 -0.00147491495590657 -0.0009059946751222014
5304000000.0 -0.00034839013824239373 0.0016014869324862957
5308000000.0 0.0016398780280724168 0.00012638428597711027
5312000000.0 -0.00047918842756189406 -0.001244068844243884
5316000000.0 -0.001065060612745583 0.0009885979816317558
5320000000.0 0.001201246865093708 0.0006773016648367047
5324000000.0 0.00021309683506842703 -0.00142519676592201
5328000000.0 -0.0015353697817772627 9.672743544797413e-06
5332000000.0 0.0004492962034419179 0.0013734257081523538
5336000000.0 0.0008990047499537468 -0.0008603183669038117
5340000000.0 -0.0012458589626476169 -0.0006078397855162621
5344000000.0 -0.0002010823809541762 0.0016268317122012377
5348000000.0 0.0013593626208603382 -0.0002948349865619093
5352000000.0 -0.0007092046434991062 -0.0013908431865274906
5356000000.0 -0.0008938600076362491 0.00124360341578722
5360000000.0 0.0012768968008458614 0.0003158114559482783
5364000000.0 -0.00010601970279822126 -0.001479746075347066
5368000000.0 -0.0015447430778294802 0.0006379271508194506
5372000000.0 0.0010580680100247264 0.0012009734055027366
5376000000.0 0.0006741753895767033 -0.001413831952959299
5380000000.0 -0.0016144569963216782 -0.00021078105783089995
5384000000.0 0.0002886576985474676 0.0014927568845450878
5388000000.0 0.0013437687885016203 -0.0008591636433266103
5392000000.0 -0.0014423270476981997 -0.0008497469243593514
5396000000.0 -0.0003671485756058246 0.0014969009207561612
5400000000.0 0.001574033754877746 -0.00034402808523736894
5404000000.0 -0.0008557239780202508 -0.0013922633370384574
5408000000.0 -0.0011347088729962707 0.0014697171282023191
5412000000.0 0.0017519723623991013 0.0004981099627912045
5416000000.0 -0.0003362075367476791 -0.0017388502601534128
5420000000.0 -0.0014896660577505827 0.0007558470242656767
5424000000.0 0.0011903033591806889 0.0012976658763363957
5428000000.0 0.0006582027417607605 -0.0016900263726711273
5432000000.0 -0.0017471545143052936 4.132748654228635e-05
5436000000.0 0.0006990068941377103 0.0015795616200193763
5440000000.0 0.0011923160636797547 -0.0013073600130155683
5444000000.0 -0.0014853343600407243 -0.000519352441187948
5448000000.0 -4.333196557126939e-05 0.0016862412448972464
5452000000.0 0.0017324730288237333 -0.0007619669777341187
5456000000.0 -0.0014265835052356124 -0.001153450459241867
5460000000.0 -0.00041275352123193443 0.0016963407397270203
5464000000.0 0.0017459163209423423 -0.0002040247927652672
5468000000.0 -0.0006833886727690697 -0.0015202276408672333
5472000000.0 -0.0008940502302721143 0.0012998158344998956
5476000000.0 0.0014172813389450312 0.0005434913327917457
5480000000.0 -3.140321496175602e-05 -0.0014034371124580503
5484000000.0 -0.0012982344487681985 0.000579987361561507
5488000000.0 0.000758951238822192 0.0008818116621114314
5492000000.0 0.00048502557910978794 -0.000981033779680729
5496000000.0 -0.0010782581521198153 -0.0002602864115033299
5500000000.0 0.00044804488425143063 0.0010333068203181028
5504000000.0 0.0011129381600767374 -0.0003716186620295048
5508000000.0 -0.0008952408097684383 -0.000978154712356627
5512000000.0 -0.00046561926137655973 0.0009643274242989719
5516000000.0 0.0012120414758101106 4.0468989027431235e-05
5520000000.0 -0.0004453513538464904 -0.0012498246505856514
5524000000.0 -0.0008987946785055101 0.0007730986108072102
5528000000.0 0.001089342636987567 0.0006935631390661001
5532000000.0 0.0001014785302686505 -0.0011437636567279696
5536000000.0 -0.0011059594107791781 0.0002403068501735106
5540000000.0 0.0005531628848984838 0.0009188800468109548
5544000000.0 0.000562841072678566 -0.000976467679720372
5548000000.0 -0.0012149892281740904 -0.0001305597397731617
5552000000.0 -1.4789825399930123e-06 0.001250453875400126
5556000000.0 0.0010414356365799904 -0.0004983838298358023
5560000000.0 -0.0009862601291388273 -0.000700290547683835
5564000000.0 -0.0003847900952678174 0.0009763319976627827
5568000000.0 0.0012611695565283298 -0.00015391594206448644
5572000000.0 -0.0005416689091362059 -0.0012010697973892093
5576000000.0 -0.0008770108688622713 0.000864635338075459
5580000000.0 0.001118958811275661 0.00021147800725884736
5584000000.0 3.529911191435531e-05 -0.001285142614506185
5588000000.0 -0.0012656678445637226 0.00024257438781205565
5592000000.0 0.0009000473655760288 0.0008154184906743467
5596000000.0 0.0007233325159177184 -0.0009873436065390706
5600000000.0 -0.0011491861660033464 -1.5827175957383588e-05
5604000000.0 0.00043680783710442483 0.0012093628756701946
5608000000.0 0.0009066772763617337 -0.000613111536949873
5612000000.0 -0.0010275694075971842 -0.0007155187195166945
5616000000.0 -0.00047275368706323206 0.000948901753872633
5620000000.0 0.0012046974152326584 -0.000215121079236269
5624000000.0 -0.00042403931729495525 -0.001394151709973812
5628000000.0 -0.000993800931610167 0.0010505920508876443
5632000000.0 0.00129921012558043 0.0003983744827564806
5636000000.0 -3.800422928179614e-05 -0.0014244712656363845
5640000000.0 -0.0012772574555128813 0.0006375701050274074
5644000000.0 0.0011447103461250663 0.0008801307994872332
5648000000.0 0.0002964984450954944 -0.0012757462682202458
5652000000.0 -0.001277203788049519 0.00037358503323048353
5656000000.0 0.0005173921235837042 0.0009666314581409097
5660000000.0 0.0007253782241605222 -0.0008099221740849316
5664000000.0 -0.0013503970112651587 -0.0003294431953690946
5668000000.0 -0.000141690339660272 0.001161678577773273
5672000000.0 0.0009817644022405148 -0.00030027443426661193
5676000000.0 -0.0008163182646967471 -0.000942367420066148
5680000000.0 -0.00040445843478664756 0.001198922866024077
5684000000.0 0.001205864711664617 6.500414019683376e-05
5688000000.0 -0.0002674759307410568 -0.0009335349313914776
5692000000.0 -0.0007302936865016818 0.0006869268254376948
5696000000.0 0.0009601081837899983 0.0006186293321661651
5700000000.0 -4.3534470023587346e-05 -0.0011690922547131777
5704000000.0 -0.0013433928834274411 1.5618043107679114e-05
5708000000.0 0.0008368983981199563 0.00097748008556664
5712000000.0 0.0008395835757255554 -0.0010365850757807493
5716000000.0 -0.0009281596867367625 -6.932452379260212e-05
5720000000.0 -0.00014060943794902414 0.0006685889675281942
5724000000.0 0.0010848179226741195 -0.0005304491496644914
5728000000.0 -0.0007883863290771842 -0.0009301259997300804
5732000000.0 -0.0005568772321566939 0.000999071286059916
5736000000.0 0.001031810650601983 -0.00013334600953385234
5740000000.0 -0.0004295023391023278 -0.0010701430728659034
5744000000.0 -0.0009234847384504974 0.0006373091600835323
5748000000.0 0.0010308081982657313 0.0003142385103274137
5752000000.0 0.0004782993928529322 -0.0012731306487694383
5756000000.0 -0.001071703853085637 0.00013385149941314012
5760000000.0 0.0006539596943184733 0.0011848465073853731
5764000000.0 0.0009477107087150216 -0.0009742013644427061
5768000000.0 -0.0009345675935037434 -0.0002926916931755841
5772000000.0 0.00019978999625891447 0.0011660460149869323
5776000000.0 0.0010103320237249136 -0.0003559249744284898
5780000000.0 -0.0006807286408729851 -0.0009289972367696464
5784000000.0 -0.00041830624104477465 0.0007584614213556051
5788000000.0 0.001244187937118113 0.00034048972884193063
5792000000.0 -0.00011040126264560968 -0.0013454329455271363
5796000000.0 -0.0011414923937991261 0.0007348821382038295
5800000000.0 0.001123484456911683 0.0006620350759476423
5804000000.0 0.0002868119045160711 -0.0012554565910249949
5808000000.0 -0.0011983924778178334 0.00021972133254166692
5812000000.0 0.00029554456705227494 0.001302164513617754
5816000000.0 0.0008092037169262767 -0.0010892911814153194
5820000000.0 -0.0009330245666205883 -0.0002505345328245312
5824000000.0 -1.816593066905625e-05 0.0014529310865327716
5828000000.0 0.000996636226773262 -0.0005981589783914387
5832000000.0 -0.0008217139402404428 -0.0009759291424416006
5836000000.0 -0.0008230139501392841 0.000957040989305824
5840000000.0 0.0009330494212917984 0.00034477145527489483
5844000000.0 -0.0004996832576580346 -0.001320331241004169
5848000000.0 -0.0011107346508651972 0.0007090214057825506
5852000000.0 0.0011205801274627447 0.000692298635840416
5856000000.0 0.0006731037865392864 -0.0016060912748798728
5860000000.0 -0.001436242600902915 6.84121623635292e-05
5864000000.0 0.0004860311164520681 0.0012516991700977087
5868000000.0 0.0011627422645688057 -0.0008306741947308183
5872000000.0 -0.001459565944969654 -0.000433451117714867
5876000000.0 2.920677616202738e-05 0.0014980132691562176
5880000000.0 0.0008876859210431576 -0.00063269556267187
5884000000.0 -0.0008856506901793182 -0.000678258656989783
5888000000.0 -0.0007291961810551584 0.001229014596901834
5892000000.0 0.001542361918836832 -0.00011950371117563918
5896000000.0 -0.00042272009886801243 -0.0014847161946818233
5900000000.0 -0.0008940224652178586 0.000583010958507657
5904000000.0 0.0009584880899637938 0.0008237337460741401
5908000000.0 0.00042173697147518396 -0.0013310378417372704
5912000000.0 -0.0013128782156854868 -0.00018292493768967688
5916000000.0 0.0006206335383467376 0.0011757478350773454
5920000000.0 0.0007056415197439492 -0.000854285666719079
5924000000.0 -0.0010310072684660554 -0.00034740607952699065
5928000000.0 0.00011770812852773815 0.0011801355285570025
5932000000.0 0.0010209354804828763 -0.0006601187051273882
5936000000.0 -0.0011745800729840994 -0.0009027055348269641
5940000000.0 -0.0005209569353610277 0.0013141162926331162
5944000000.0 0.001320784678682685 8.052280463743955e-05
5948000000.0 -0.0005637867143377662 -0.0012571044499054551
5952000000.0 -0.0008806842379271984 0.0005764993256889284
5956000000.0 0.0009997335728257895 0.0004891183925792575
5960000000.0 0.00018238619668409228 -0.001136897481046617
5964000000.0 -0.0009684220422059298 0.00019833511032629758
5968000000.0 0.0005829962901771069 0.0006904215551912785
5972000000.0 0.0007995292544364929 -0.0008418084471486509
5976000000.0 -0.0008528384496457875 -0.0004234278458170593
5980000000.0 4.0490205719834194e-05 0.001167946495115757
5984000000.0 0.0009755194769240916 -0.0005581056466326118
5988000000.0 -0.0006804855656810105 -0.0008940936531871557
5992000000.0 -0.0003829477645922452 0.0006761619006283581
5996000000.0 0.0010561340022832155 -3.327937884023413e-05
6000000000.0 -0.00033810644526965916 -0.0009323200210928917
6004000000.0 -0.0008388533024117351 0.0006011847290210426
6008000000.0 0.0009145481162704527 0.0005080444971099496
6012000000.0 0.0002162870514439419 -0.0010464321821928024
6016000000.0 -0.001096879132091999 0.000241630055825226
6020000000.0 0.0004489940474741161 0.0010322736343368888
6024000000.0 0.0007895982707850635 -0.0007346036727540195
6028000000.0 -0.001018189243040979 -0.00027951234369538724
6032000000.0 0.00013832001422997564 0.0013384808553382754
6036000000.0 0.0009246317786164582 -0.0005977272521704435
6040000000.0 -0.0009954833658412099 -0.0006064378540031612
6044000000.0 -0.0002798967179842293 0.0010855041909962893
6048000000.0 0.001330555765889585 -7.019245822448283e-05
6052000000.0 -0.0004899238119833171 -0.0009870566427707672
6056000000.0 -0.000714462308678776 0.0007001332705840468
6060000000.0 0.0007880381890572608 0.00033962016459554434
6064000000.0 -0.00014059118984732777 -0.0009637040784582496
6068000000.0 -0.000800216686911881 0.00017079808458220214
6072000000.0 0.0005390151054598391 0.0006892892997711897
6076000000.0 0.0004256621759850532 -0.0008691935800015926
6080000000.0 -0.0008549526100978255 -0.00035474629839882255
6084000000.0 9.41997132031247e-05 0.001001474680379033
6088000000.0 0.0009487821953371167 -0.0004068076959811151
6092000000.0 -0.0005801823572255671 -0.0007500427309423685
6096000000.0 -0.00034128327388316393 0.0009653405868448317
6100000000.0 0.0012231034925207496 0.00013821815082337707
6104000000.0 -0.0003255143528804183 -0.0011046561412513256
6108000000.0 -0.0011727354722097516 0.0008648574003018439
6112000000.0 0.0009972440311685205 0.0005899754469282925
6116000000.0 0.00012216366303618997 -0.0010805305792018771
6120000000.0 -0.0010361436288803816 0.0005286806845106184
6124000000.0 0.0008249283418990672 0.0009075654088519514
6128000000.0 0.0006667508860118687 -0.0014840679941698909
6132000000.0 -0.0012111994437873363 0.00010554688196862116
6136000000.0 0.00064049381762743 0.0010680011473596096
6140000000.0 0.0009672273299656808 -0.0009741131216287613
6144000000.0 -0.0008116596727631986 -0.0006700849044136703
6148000000.0 -5.3405081416713074e-05 0.0012881139991804957
6152000000.0 0.0008726550149731338 -0.00023387288092635572
6156000000.0 -0.0005854250630363822 -0.0008021942339837551
6160000000.0 -0.0007706861360929906 0.0007307110936380923
6164000000.0 0.0008428237051703036 0.00031462826882489026
6168000000.0 2.2279691620497033e-05 -0.0010299521964043379
6172000000.0 -0.0010089039569720626 0.00036490094498731196
6176000000.0 0.0008824805845506489 0.0008474102942273021
6180000000.0 0.0006987607921473682 -0.0009698130306787789
6184000000.0 -0.0008787767146714032 -0.00028786048642359674
6188000000.0 -1.663671923779475e-06 0.001302665681578219
6192000000.0 0.0011833321768790483 -0.0006554698920808733
6196000000.0 -0.0011207223869860172 -0.000973610149230808
6200000000.0 -0.0003978674940299243 0.0011417808709666133
6204000000.0 0.0015807085437700152 -0.00022211130999494344
6208000000.0 -0.0008038122905418277 -0.0012792001944035292
6212000000.0 -0.001102773705497384 0.0012758062221109867
6216000000.0 0.0016899779438972473 0.0005437872023321688
6220000000.0 -0.00040872005047276616 -0.0017312471754848957
6224000000.0 -0.0015477364649996161 0.0010492895962670445
6228000000.0 0.0014332858845591545 0.0008696916047483683
6232000000.0 0.0003368699981365353 -0.0015566920628771186
6236000000.0 -0.0016457240562886 0.0001878312323242426
6240000000.0 0.0010446866508573294 0.0013038957258686423
6244000000.0 0.0010312446393072605 -0.0013057275209575891
6248000000.0 -0.0015610812697559595 -0.0003356139350216836
6252000000.0 8.656370482640341e-05 0.00136777781881392
6256000000.0 0.0012165833031758666 -0.0005330602871254086
6260000000.0 -0.0008283416391350329 -0.0009403392905369401
6264000000.0 -0.0006289495504461229 0.0012803656281903386
6268000000.0 0.0014414488105103374 3.5321569157531485e-05
6272000000.0 -0.0004202986601740122 -0.0014134604716673493
6276000000.0 -0.0011371660511940718 0.0008980201091617346
6280000000.0 0.001168453018181026 0.0008826606208458543
6284000000.0 0.0005348899285309017 -0.0014705478679388762
6288000000.0 -0.001596393994987011 0.00011048353189835325
6292000000.0 0.0005001570680178702 0.0016093807062134147
6296000000.0 0.0011348427506163716 -0.0012128115631639957
6300000000.0 -0.0016235974617302418 -0.0008161511505022645
6304000000.0 -0.0002526958705857396 0.0019764325115829706
6308000000.0 0.0017778887413442135 -0.0005097367684356868
6312000000.0 -0.001144641893915832 -0.0016431307885795832
6316000000.0 -0.0012123816413804889 0.0017300780164077878
6320000000.0 0.0020396055188030005 0.0001877717295428738
6324000000.0 -0.0006910852971486747 -0.002355396281927824
6328000000.0 -0.0020056699868291616 0.0015497237909585238
6332000000.0 0.002241317415609956 0.0009672816377133131
6336000000.0 -9.597744792699814e-05 -0.002338145161047578
6340000000.0 -0.0021258338820189238 0.0010730618378147483
6344000000.0 0.0017430215375497937 0.001286545768380165
6348000000.0 0.0005739410407841206 -0.002074643736705184
6352000000.0 -0.002001532819122076 0.0003450789372436702
6356000000.0 0.0009367785532958806 0.0016380577581003308
6360000000.0 0.0013264918234199286 -0.0012058067368343472
6364000000.0 -0.0016047399258241057 -0.0005999845452606678
6368000000.0 -0.00018207324319519103 0.0018446027534082532
6372000000.0 0.001698309206403792 -0.0002960540587082505
6376000000.0 -0.0011209246004000306 -0.0014118374092504382
6380000000.0 -0.001043013297021389 0.0015787524171173573
6384000000.0 0.0016540607903152704 0.0005017909570597112
6388000000.0 -9.233941818820313e-05 -0.001772911986336112
6392000000.0 -0.001669644028879702 0.0008992606308311224
6396000000.0 0.0013428647071123123 0.0012736361240968108
6400000000.0 0.0010865199146792293 -0.0016718250699341297
6404000000.0 -0.002324670320376754 -0.00019764460739679635
6408000000.0 0.0005981582798995078 0.0022249610628932714
6412000000.0 0.0016823156038299203 -0.0015905805630609393
6416000000.0 -0.0022564383689314127 -0.0008575512911193073
6420000000.0 3.761525294976309e-05 0.0026430953294038773
6424000000.0 0.00223775883205235 -0.0011101592099294066
6428000000.0 -0.0019445306388661265 -0.0015907434280961752
6432000000.0 -0.0006697549833916128 0.0023774304427206516
6436000000.0 0.002286931499838829 -0.0005189875373616815
6440000000.0 -0.0013514531310647726 -0.0019601404201239347
6444000000.0 -0.0011178292334079742 0.0019369256915524602
6448000000.0 0.0019036408048123121 0.0003084697527810931
6452000000.0 -0.0005111196078360081 -0.001916286419145763
6456000000.0 -0.001392484875395894 0.0011677357833832502
6460000000.0 0.0015066663036122918 0.0009549212409183383
6464000000.0 0.0004036513564642519 -0.0014353067381307483
6468000000.0 -0.0015174206346273422 0.00019529818382579833
6472000000.0 0.0007383383344858885 0.0013264785520732403
6476000000.0 0.0011587340850383043 -0.0009201884386129677
6480000000.0 -0.0011088668834418058 -0.0009136955486610532
6484000000.0 -0.0006340473773889244 0.0013968253042548895
6488000000.0 0.001186062698252499 -0.0003507048822939396
6492000000.0 -0.0007134910556487739 -0.0012818181421607733
6496000000.0 -0.0010534460889175534 0.0011151968501508236
6500000000.0 0.0015699135838076472 0.00047387677477672696
6504000000.0 -0.00019662991689983755 -0.0017234961269423366
6508000000.0 -0.0017116294475272298 0.0006916744750924408
6512000000.0 0.001388652715831995 0.0013866007793694735
6516000000.0 0.0005962852155789733 -0.0019123256206512451
6520000000.0 -0.0018720058724284172 0.00029595306841656566
6524000000.0 0.000875221798196435 0.0015190568519756198
6528000000.0 0.0014941825065761805 -0.0013652034103870392
6532000000.0 -0.0017393049784004688 -0.0006479673902504146
6536000000.0 0.00018476665718480945 0.002146360231563449
6540000000.0 0.0018362074624747038 -0.0010786454658955336
6544000000.0 -0.001536287134513259 -0.0012070911470800638
6548000000.0 -0.00024367660807911307 0.002210731850937009
6552000000.0 0.0022195593919605017 -0.0004664873122237623
6556000000.0 -0.0013970870058983564 -0.0013902874197810888
6560000000.0 -0.0006763195851817727 0.0018863108707591891
6564000000.0 0.00184296490624547 -0.00013068718544673175
6568000000.0 -0.0010071853175759315 -0.0015938120195642114
6572000000.0 -0.0011071752524003386 0.001268021878786385
6576000000.0 0.0015246772672981024 0.000466814759420231
6580000000.0 0.00018085245392285287 -0.001379806431941688
6584000000.0 -0.0013807066716253757 0.0003081555769313127
6588000000.0 0.0008786547696217895 0.0011814775643870234
6592000000.0 0.0006174316513352096 -0.0012383535504341125
6596000000.0 -0.0012987109366804361 -0.00022342785086948425
6600000000.0 0.00026950211031362414 0.0013821604661643505
6604000000.0 0.0012676670448854566 -0.0005108379991725087
6608000000.0 -0.0010363413020968437 -0.0010070714633911848
6612000000.0 -0.0005117832915857434 0.001721997745335102
6616000000.0 0.0017833858728408813 -0.0004231416096445173
6620000000.0 -0.0009534158161841333 -0.00140535575337708
6624000000.0 -0.0009709110599942505 0.0011922954581677914
6628000000.0 0.0017176170367747545 0.0001382373011438176
6632000000.0 -0.00020726953516714275 -0.001468654372729361
6636000000.0 -0.0013484149239957333 0.0009057841962203383
6640000000.0 0.0010603172704577446 0.0008410223526880145
6644000000.0 0.0002731027198024094 -0.0013423837954178452
6648000000.0 -0.001464131404645741 0.00020439649233594537
6652000000.0 0.000606850313488394 0.0016180197708308697
6656000000.0 0.001095666317269206 -0.001253185560926795
6660000000.0 -0.0012503453763201833 -0.00046910822857171297
6664000000.0 7.971966988407075e-05 0.001709394040517509
6668000000.0 0.0015431541251018643 -0.0006675143376924098
6672000000.0 -0.001491332775913179 -0.0012389684561640024
6676000000.0 -0.00034128231345675886 0.0012567550875246525
6680000000.0 0.001492937677539885 -3.0043089282116853e-05
6684000000.0 -0.0007055914611555636 -0.0013811771059408784
6688000000.0 -0.0009510480449534953 0.0009138645837083459
6692000000.0 0.0010202341945841908 0.0004922781954519451
6696000000.0 -7.807780093571637e-06 -0.001541128964163363
6700000000.0 -0.0014259485760703683 0.0004508133279159665
6704000000.0 0.0009548348607495427 0.001039382303133607
6708000000.0 0.00029732516850344837 -0.0014106162125244737
6712000000.0 -0.0016176430508494377 0.00023677587159909308
6716000000.0 0.0007932951557449996 0.0010425328509882092
6720000000.0 0.0009590067784301937 -0.0010715335374698043
6724000000.0 -0.0010833339765667915 -0.0003182724758516997
6728000000.0 0.00022497227473650128 0.0013555664336308837
6732000000.0 0.0007216062513180077 -0.00024845227017067373
6736000000.0 -0.0008194738766178489 -0.00014064718561712652
6740000000.0 -0.00026151983183808625 0.001036658650264144
6744000000.0 0.0008367287809960544 -9.543963824398816e-05
6748000000.0 -0.00042677426245063543 -0.0006967358058318496
6752000000.0 -0.000436182162957266 0.0006223930395208299
6756000000.0 0.0007467242539860308 0.000250240380410105
6760000000.0 -9.124907228397205e-05 -0.0005717314779758453
6764000000.0 -0.0005791641888208687 0.00035108596784994006
6768000000.0 0.0004042545333504677 0.00044510531006380916
6772000000.0 0.0003452223027125001 -0.0007454764563590288
6776000000.0 -0.000604122004006058 -0.0001967702410183847
6780000000.0 -1.2769742170348763e-05 0.0005292693385854363
6784000000.0 0.0006344252615235746 -0.00023091290495358407
6788000000.0 -0.0008481665863655508 -0.0005415150662884116
6792000000.0 -0.00010673174983821809 0.00038009858690202236
6796000000.0 0.0007134305196814239 -0.00021711083536501974
6800000000.0 -0.00021394749637693167 -0.0002515239466447383
6804000000.0 -0.0003869504726026207 0.0004398196469992399
6808000000.0 0.00037238141521811485 0.00030353941838257015
6812000000.0 -0.00018417976389173418 -0.00020706886425614357
6816000000.0 -0.0004313256940804422 0.00036105833714827895
6820000000.0 0.0002121075667673722 0.00010660882253432646
6824000000.0 4.3306357838446274e-05 -0.00014305062359198928
6828000000.0 -0.0003824816958513111 -3.830947389360517e-05
6832000000.0 0.00011124387674499303 0.0003414388920646161
6836000000.0 0.00021006092720199376 -0.00034924797364510596
6840000000.0 -0.00034632065217010677 6.691111047985032e-05
6844000000.0 3.607026519603096e-05 0.00010163717524847016
6848000000.0 -3.3203032216988504e-05 -0.00017316150479018688
6852000000.0 -2.8441949325497262e-05 -4.571522367768921e-05
6856000000.0 -5.2785071602556854e-05 0.00022302442812360823
6860000000.0 -0.00047152736806310713 -5.5216034525074065e-05
6864000000.0 9.174723527394235e-05 -0.0004157923685852438
6868000000.0 4.3242547690169886e-05 0.00012177103781141341
6872000000.0 0.00047037782496772707 -0.00022436384460888803
6876000000.0 8.562112634535879e-05 -7.951096631586552e-05
6880000000.0 -0.00011341041681589559 -0.00014081383415032178
6884000000.0 0.00029707286739721894 -0.00011933383211726323
6888000000.0 -0.0004139778029639274 -8.067115413723513e-05
6892000000.0 8.038717351155356e-05 0.0003385207674000412
6896000000.0 0.00041154169593937695 -0.0006114427815191448
6900000000.0 -0.00041774363489821553 -0.00012427126057446003
6904000000.0 6.792944623157382e-05 0.0008945005247369409
6908000000.0 0.000851978431455791 -0.0003204579115845263
6912000000.0 -0.0010698564583435655 -0.00043763831490650773
6916000000.0 -8.338814950548112e-05 0.001100104651413858
6920000000.0 0.0009302077814936638 -0.0005986643373034894
6924000000.0 -0.0012798202224075794 -0.00030754576437175274
6928000000.0 9.328535088570789e-05 0.0008563135052099824
6932000000.0 0.0008894956554286182 -6.453998503275216e-05
6936000000.0 -0.00046658088103868067 -0.0008165407925844193
6940000000.0 -0.0006479055737145245 0.0006616736063733697
6944000000.0 0.0010320297442376614 0.00035473256139084697
6948000000.0 0.00013273242802824825 -0.0009685095283202827
6952000000.0 -0.0010837222216650844 0.0003732852346729487
6956000000.0 0.0010242866119369864 0.0007131389575079083
6960000000.0 0.00039865076541900635 -0.001323634060099721
6964000000.0 -0.0011303202481940389 0.00018458039266988635
6968000000.0 0.0009392058127559721 0.0010736034018918872
6972000000.0 0.0006701162783429027 -0.0012619502376765013
6976000000.0 -0.0013397299917414784 -0.0002582466695457697
6980000000.0 0.0002521701972000301 0.0012941128807142377
6984000000.0 0.0013397528091445565 -0.0006759457173757255
6988000000.0 -0.0006104407948441803 -0.0005366362165659666
6992000000.0 -0.00042236014269292355 0.0011816824553534389
6996000000.0 0.0011173158418387175 0.00018769661255646497
7000000000.0 4.0383853047387674e-05 -0.0013123489916324615
7004000000.0 -0.0010047859977930784 0.0005112934741191566
7008000000.0 0.0008251194376498461 0.0006513925618492067
7012000000.0 0.0005731556448154151 -0.0012757009826600552
7016000000.0 -0.0016370246885344386 -0.0002660859317984432
7020000000.0 0.0006154601578600705 0.0016380087472498417
7024000000.0 0.0012931692181155086 -0.0010696297977119684
7028000000.0 -0.0021070975344628096 -0.000682239537127316
7032000000.0 -8.017961590667255e-06 0.0028082765638828278
7036000000.0 0.00242414278909564 -0.0016476685414090753
7040000000.0 -0.002518125344067812 -0.0014441543025895953
7044000000.0 -3.4435255656717345e-05 0.0024497308768332005
7048000000.0 0.0017960794502869248 -0.0008463193662464619
7052000000.0 -0.0014336411841213703 -0.0018234041053801775
7056000000.0 -0.0011132159270346165 0.002008644165471196
7060000000.0 0.0024236978497356176 0.0003426671610213816
7064000000.0 -0.0007120254449546337 -0.00266260770149529
7068000000.0 -0.002231566933915019 0.0018056429689750075
7072000000.0 0.002757040783762932 0.0007956117042340338
7076000000.0 -0.0005109197809360921 -0.00334415421821177
7080000000.0 -0.0028618962969630957 0.0018886378966271877
7084000000.0 0.002564007183536887 0.001248363871127367
7088000000.0 -0.00018598731548991054 -0.0022762389853596687
7092000000.0 -0.002037660451605916 0.0008454244816675782
7096000000.0 0.0009662765660323203 0.0014908098382875323
7100000000.0 0.0008369483985006809 -0.0011354730231687427
7104000000.0 -0.001688474789261818 -0.0006576446467079222
7108000000.0 -0.0002332382573513314 0.0018505346961319447
7112000000.0 0.001548346015624702 -0.0004834745777770877
7116000000.0 -0.0012439796701073647 -0.0012809488689526916
7120000000.0 -0.0011106820311397314 0.0014682732289656997
7124000000.0 0.001931957434862852 0.0005303457146510482
7128000000.0 -0.00038839425542391837 -0.0025590849108994007
7132000000.0 -0.00229655671864748 0.0013114438625052571
7136000000.0 0.0024667640682309866 0.0013625939609482884
7140000000.0 -0.00029924153932370245 -0.00251172692514956
7144000000.0 -0.0016127240378409624 0.0012817535316571593
7148000000.0 0.0011316968593746424 0.0010453680297359824
7152000000.0 0.0008511525229550898 -0.00178884482011199
7156000000.0 -0.0018603461794555187 -0.0004703354206867516
7160000000.0 0.00012213971058372408 0.0020906617864966393
7164000000.0 0.0016306092729791999 -0.0012412316864356399
7168000000.0 -0.0020144132431596518 -0.0013633687049150467
7172000000.0 -0.0005320676136761904 0.0021873388905078173
7176000000.0 0.002433131681755185 -0.00018484739121049643
7180000000.0 -0.0009517439175397158 -0.002221672562882304
7184000000.0 -0.0020703740883618593 0.0018399227410554886
7188000000.0 0.0026884309481829405 0.0009691882296465337
7192000000.0 -0.0003984216309618205 -0.003316472750157118
7196000000.0 -0.0034471217077225447 0.002038318896666169
7200000000.0 0.003061123425140977 0.0018713638419285417
7204000000.0 0.0002873700868804008 -0.0034095230512320995
7208000000.0 -0.0029531982727348804 0.0008173726382665336
7212000000.0 0.0024431657511740923 0.0024725524708628654
7216000000.0 0.0015386365121230483 -0.0028529460541903973
7220000000.0 -0.0031249409075826406 -3.784300133702345e-05
7224000000.0 0.0007431599078699946 0.003003622405230999
7228000000.0 0.0028676441870629787 -0.0017133847577497363
7232000000.0 -0.00266078463755548 -0.0023895748890936375
7236000000.0 -0.0012322816764935851 0.0036560934968292713
7240000000.0 0.0042759813368320465 -0.0006506231147795916
7244000000.0 -0.0028143536765128374 -0.0037554767914116383
7248000000.0 -0.0018999120220541954 0.004863498266786337
7252000000.0 0.004229459445923567 -0.0010971537558361888
7256000000.0 -0.002618032041937113 -0.002815371146425605
7260000000.0 -0.0012428557965904474 0.003082277486100793
7264000000.0 0.00255785183981061 0.00018766747962217778
7268000000.0 -0.00012479022552724928 -0.0026556432712823153
7272000000.0 -0.0023105922155082226 0.0007212052005343139
7276000000.0 0.0014532878994941711 0.0016901904018595815
7280000000.0 0.0012421745341271162 -0.0020130081102252007
7284000000.0 -0.0024934059474617243 -0.0007237902609631419
7288000000.0 -3.520079189911485e-05 0.002700984012335539
7292000000.0 0.0028507420793175697 -0.001347500248812139
7296000000.0 -0.002962355501949787 -0.0023762891069054604
7300000000.0 -6.202981603564695e-05 0.004020571708679199
7304000000.0 0.0029446452390402555 -0.0017234692350029945
7308000000.0 -0.0021257661283016205 -0.000626005232334137
7312000000.0 -0.0009217520710080862 0.0014265455538406968
7316000000.0 0.0015769954770803452 0.0006195184541866183
7320000000.0 0.0005530783673748374 -0.0023615823592990637
7324000000.0 -0.0024215064477175474 0.0009508989751338959
7328000000.0 0.001212926348671317 0.0021826664451509714
7332000000.0 0.0016035974258556962 -0.0020695326384156942
7336000000.0 -0.0025796513073146343 -0.000987588195130229
7340000000.0 -0.0005222272011451423 0.0031135776080191135
7344000000.0 0.003393549472093582 -0.001281021162867546
7348000000.0 -0.0023370147682726383 -0.0030503354500979185
7352000000.0 -0.0017584655433893204 0.0037684873677790165
7356000000.0 0.00455712852999568 -0.000690226152073592
7360000000.0 -0.0026291990652680397 -0.0037036268040537834
7364000000.0 -0.00225652102380991 0.003550551598891616
7368000000.0 0.0038607928436249495 0.0008225666242651641
7372000000.0 -0.001255062292329967 -0.003929282072931528
7376000000.0 -0.0032312599942088127 0.002117469208315015
7380000000.0 0.002921823877841234 0.0016174166230484843
7384000000.0 0.0005709467804990709 -0.0036354020703583956
7388000000.0 -0.0027673039585351944 0.0006434390088543296
7392000000.0 0.001799362013116479 0.0029731690883636475
7396000000.0 0.0021984016057103872 -0.002134511712938547
7400000000.0 -0.002872473793104291 -0.0020361824426800013
7404000000.0 -0.001306888647377491 0.003509488655254245
7408000000.0 0.004106806591153145 -0.00042688712710514665
7412000000.0 -0.002535514999181032 -0.004323532339185476
7416000000.0 -0.0027440309058874846 0.004828775767236948
7420000000.0 0.005202790256589651 -0.0006336975493468344
7424000000.0 -0.0029014081228524446 -0.004284710623323917
7428000000.0 -0.0018959577428177 0.003920568618923426
7432000000.0 0.003326315898448229 0.0002900271210819483
7436000000.0 -0.0007124894764274359 -0.0024319977965205908
7440000000.0 -0.0021431453060358763 0.0012948685325682163
7444000000.0 0.0012303900439292192 0.0015245601534843445
7448000000.0 0.0013800773303955793 -0.0016838237643241882
7452000000.0 -0.0024887584149837494 -0.0006268826546147466
7456000000.0 -0.00028424724587239325 0.002879306674003601
7460000000.0 0.003275820054113865 -0.000775628664996475
7464000000.0 -0.0019509043777361512 -0.0026988480240106583
7468000000.0 -0.002144918777048588 0.0031624562107026577
7472000000.0 0.004123575519770384 0.0006028361385688186
7476000000.0 -0.0010467051761224866 -0.004620273131877184
7480000000.0 -0.0035345086362212896 0.003272178117185831
7484000000.0 0.0038281423039734364 0.0015722854295745492
7488000000.0 -0.0004271053767297417 -0.004561992362141609
7492000000.0 -0.0036016928497701883 0.0020433601457625628
7496000000.0 0.0033349646255373955 0.0024167592637240887
7500000000.0 0.0010882725473493338 -0.0036732202861458063
7504000000.0 -0.0038977758958935738 0.0002140942815458402
7508000000.0 0.0017252974212169647 0.0032064251136034727
7512000000.0 0.0019990152213722467 -0.003199584549292922
7516000000.0 -0.003082677023485303 -0.0005599182331934571
7520000000.0 -0.0003104539937339723 0.0024071030784398317
7524000000.0 0.00317312846891582 -0.0009120480390265584
7528000000.0 -0.002086506225168705 -0.0022212646435946226
7532000000.0 -0.0015302185202017426 0.0030418552923947573
7536000000.0 0.003324005752801895 0.0003344417782500386
7540000000.0 -0.0005398301873356104 -0.003516413504257798
7544000000.0 -0.0026988850440829992 0.0017537145176902413
7548000000.0 0.002305655274540186 0.002340384991839528
7552000000.0 0.001042829593643546 -0.003074607579037547
7556000000.0 -0.0030767815187573433 -0.00028905997169204056
7560000000.0 0.0005304297665134072 0.0032055338378995657
7564000000.0 0.0037079351022839546 -0.0017769180703908205
7568000000.0 -0.003952652215957642 -0.00319747650064528
7572000000.0 -0.0009866907494142652 0.006419434677809477
7576000000.0 0.006478975992649794 -0.003501897444948554
7580000000.0 -0.006969799287617207 -0.002983620623126626
7584000000.0 0.001903155236504972 0.006719052325934172
7588000000.0 0.00398789718747139 -0.00443759560585022
7592000000.0 -0.004221910610795021 -0.0012038074200972915
7596000000.0 0.00021671198192052543 0.003652657847851515
7600000000.0 0.0030712082516402006 -0.001358628273010254
7604000000.0 -0.0017797949258238077 -0.00196837424300611
7608000000.0 -0.0016580428928136826 0.0025059462059289217
7612000000.0 0.002578851068392396 0.0007965794648043811
7616000000.0 -4.819965033675544e-05 -0.0024282580707222223
7620000000.0 -0.002298837760463357 0.0006800919072702527
7624000000.0 0.0012740851379930973 0.002215298358350992
7628000000.0 0.0018844420555979013 -0.0018445220775902271
7632000000.0 -0.0028519723564386368 -0.0010589300654828548
7636000000.0 0.00014505034778267145 0.0033053008373826742
7640000000.0 0.0029596162494271994 -0.001072365092113614
7644000000.0 -0.0026134003419429064 -0.002453816356137395
7648000000.0 -0.0012764370767399669 0.00388258951716125
7652000000.0 0.0033748738933354616 -0.000565036665648222
7656000000.0 -0.0019193982006981969 -0.0028568541165441275
7660000000.0 -0.0019183836411684752 0.002903727348893881
7664000000.0 0.0029397280886769295 0.0006689027650281787
7668000000.0 -0.00026813807198777795 -0.0034393887035548687
7672000000.0 -0.0035091887693852186 0.0012368077877908945
7676000000.0 0.0025045345537364483 0.0027762341778725386
7680000000.0 0.001482010935433209 -0.0034575576428323984
7684000000.0 -0.0037369539495557547 -0.0005243230843916535
7688000000.0 0.0011657209834083915 0.004092037212103605
7692000000.0 0.004148580599576235 -0.002223050221800804
7696000000.0 -0.004247360397130251 -0.003110302845016122
7700000000.0 -0.001470742980018258 0.005620239302515984
7704000000.0 0.006376204080879688 -0.0014026788994669914
7708000000.0 -0.005300502758473158 -0.005574399139732122
7712000000.0 -0.002496918896213174 0.0073328083381056786
7716000000.0 0.007559104822576046 -0.001780646969564259
7720000000.0 -0.0053549776785075665 -0.006006015930324793
7724000000.0 -0.00229843077249825 0.007064602803438902
7728000000.0 0.006126565393060446 -0.0013526692055165768
7732000000.0 -0.003725627204403281 -0.004936669021844864
7736000000.0 -0.0024053039960563183 0.004809567239135504
7740000000.0 0.004861900582909584 0.000429443025495857
7744000000.0 -0.0012443733867257833 -0.004007103852927685
7748000000.0 -0.0033944633323699236 0.0023066250141710043
7752000000.0 0.003321287455037236 0.0019458199385553598
7756000000.0 0.000654842471703887 -0.003116156905889511
7760000000.0 -0.0033371185418218374 3.611947613535449e-05
7764000000.0 0.0011480958200991154 0.002713034162297845
7768000000.0 0.002894103527069092 -0.0012264297110959888
7772000000.0 -0.0021300744265317917 -0.002614849479869008
7776000000.0 -0.0017735188594087958 0.0030830830801278353
7780000000.0 0.003643742064014077 0.00021112321701366454
7784000000.0 -0.00048378697829321027 -0.003185598412528634
7788000000.0 -0.002414303831756115 0.0017598436679691076
7792000000.0 0.0016190693713724613 0.003131875302642584
7796000000.0 0.004700278863310814 -0.0037539335899055004
7800000000.0 -0.010894759558141232 -0.0020057864021509886
7804000000.0 0.008259495720267296 0.009306675754487514
7808000000.0 0.0005686595686711371 -0.01041534636169672
7812000000.0 -0.007524083834141493 0.0031196167692542076
7816000000.0 0.005264706909656525 0.004040319472551346
7820000000.0 0.002655638149008155 -0.006056632846593857
7824000000.0 -0.005554698407649994 0.0006230176077224314
7828000000.0 0.002619334263727069 0.0037157763727009296
7832000000.0 0.0023193033412098885 -0.002732554217800498
7836000000.0 -0.002992477035149932 -0.0018935509724542499
7840000000.0 -0.0005858177901245654 0.002943143481388688
7844000000.0 0.0033418238162994385 0.0001360078458674252
7848000000.0 -0.00017248002404812723 -0.003773340256884694
7852000000.0 -0.003639804432168603 0.0018519529839977622
7856000000.0 0.0031833855900913477 0.0035973303020000458
7860000000.0 0.0025239798706024885 -0.0053861672058701515
7864000000.0 -0.007816893979907036 -2.2499969418277033e-05
7868000000.0 0.005867264233529568 0.005882848519831896
7872000000.0 0.0011102830758318305 -0.008100424893200397
7876000000.0 -0.005612363573163748 0.0022134387400001287
7880000000.0 0.0033631613478064537 0.0035670846700668335
7884000000.0 0.0016891787527129054 -0.0039049729239195585
7888000000.0 -0.00362069602124393 -0.0005494184442795813
7892000000.0 0.0001782243634806946 0.0032325242646038532
7896000000.0 0.003186302026733756 -0.0006131721311248839
7900000000.0 -0.0013674217043444514 -0.002795402193441987
7904000000.0 -0.0024389384780079126 0.0026105153374373913
7908000000.0 0.003338563721626997 0.0020871597807854414
7912000000.0 0.0015216385945677757 -0.004016175866127014
7916000000.0 -0.004837714601308107 0.0006079066079109907
7920000000.0 0.0033211279660463333 0.004842184018343687
7924000000.0 0.0034328189212828875 -0.004846935160458088
7928000000.0 -0.005785306449979544 0.00025170730077661574
7932000000.0 0.001640696544200182 0.004844555631279945
7936000000.0 0.004061749204993248 -0.0040716854855418205
7940000000.0 -0.005164141766726971 -0.002942268503829837
7944000000.0 -0.0010093189775943756 0.006494050845503807
7948000000.0 0.006227610167115927 -0.0009281624224968255
7952000000.0 -0.0030900544952601194 -0.006302807945758104
7956000000.0 -0.006205092649906874 0.00591150252148509
7960000000.0 0.011479835025966167 0.0036342982202768326
7964000000.0 -0.006248672027140856 -0.013794474303722382
7968000000.0 -0.0009340273099951446 0.015845458954572678
7972000000.0 0.0068948399275541306 -0.007252099923789501
7976000000.0 -0.005438272375613451 -0.002406230429187417
7980000000.0 -0.0006244340911507607 0.003925779368728399
7984000000.0 0.0036038632970303297 0.00027169688837602735
7988000000.0 -0.0006371089839376509 -0.003406110918149352
7992000000.0 -0.0029211314395070076 0.0015475972322747111
7996000000.0 0.002017091028392315 0.002397437347099185
8000000000.0 0.0012811135966330767 -0.003130839904770255
