! Created with skrf 1.10.0 (http://scikit-rf.org).
# Hz S RI R 50.0 
!freq ReS11 ImS11
!
4000000000.0 0.010029743425548077 0.010313820093870163
4004000000.0 0.007772558834403753 -0.01204750221222639
4008000000.0 -0.012742409482598305 -0.004766164347529411
4012000000.0 -0.0017934850184246898 0.012996979057788849
4016000000.0 0.012737300246953964 -0.0008464106940664351
4020000000.0 -0.0034835946280509233 -0.012052329257130623
4024000000.0 -0.01100817322731018 0.005776646547019482
4028000000.0 0.00781051954254508 0.009357845410704613
4032000000.0 0.0073380121029913425 -0.009542201645672321
4036000000.0 -0.010619965381920338 -0.005212256219238043
4040000000.0 -0.003036234062165022 0.011472713202238083
4044000000.0 0.011420246213674545 0.0007621977129019797
4048000000.0 -0.001741784275509417 -0.011604804545640945
4052000000.0 -0.011093666777014732 0.004099506419152021
4056000000.0 0.006119348108768463 0.010043340735137463
4060000000.0 0.008505850099027157 -0.008164305239915848
4064000000.0 -0.00991412065923214 -0.006770893931388855
4068000000.0 -0.00454747024923563 0.011079675517976284
4072000000.0 0.01202219445258379 0.0024080537259578705
4076000000.0 -0.0002279012551298365 -0.012567589990794659
4080000000.0 -0.01250242255628109 0.0030952778179198503
4084000000.0 0.005769208539277315 0.011673946864902973
4088000000.0 0.010301491245627403 -0.00850474089384079
4092000000.0 -0.010670254938304424 -0.008156247437000275
4096000000.0 -0.005388198886066675 0.012634473852813244
4100000000.0 0.013700681738555431 0.002483843360096216
4104000000.0 -0.000899677921552211 -0.014055549167096615
4108000000.0 -0.013630066998302937 0.0043016583658754826
4112000000.0 0.007797793485224247 0.012362729758024216
4116000000.0 0.010149388574063778 -0.01076622772961855
4120000000.0 -0.012747264467179775 -0.007189825642853975
4124000000.0 -0.003500584280118346 0.013902081176638603
4128000000.0 0.014104217290878296 -0.00016875511209946126
4132000000.0 -0.003491975599899888 -0.013478572480380535
4136000000.0 -0.01189635880291462 0.006272792816162109
4140000000.0 0.008920433931052685 0.009842514991760254
4144000000.0 0.007314631715416908 -0.010338829830288887
4148000000.0 -0.01151006855070591 -0.004739128518849611
4152000000.0 -0.0021123855840414762 0.0119483582675457
4156000000.0 0.011946266517043114 -0.0006971235270611942
4160000000.0 -0.003093412145972252 -0.011292464099824429
4164000000.0 -0.010105065070092678 0.005200509913265705
4168000000.0 0.00696812616661191 0.008715121075510979
4172000000.0 0.006853719707578421 -0.00863957405090332
4176000000.0 -0.00977804884314537 -0.0049590771086514
4180000000.0 -0.0026184499729424715 0.010401943698525429
4184000000.0 0.010626685805618763 0.00040228854049928486
4188000000.0 -0.0015940882731229067 -0.010445483960211277
4192000000.0 -0.00995668489485979 0.0038019646890461445
4196000000.0 0.00573625648394227 0.008830049075186253
4200000000.0 0.007550659589469433 -0.007574953604489565
4204000000.0 -0.008992417715489864 -0.005717353895306587
4208000000.0 -0.003944751340895891 0.010233881883323193
4212000000.0 0.010924549773335457 0.0012650036951527
4216000000.0 -0.0011241813190281391 -0.011106599122285843
4220000000.0 -0.010687124915421009 0.003622976364567876
4224000000.0 0.0056868926621973515 0.009764580987393856
4228000000.0 0.008462781086564064 -0.007608629297465086
4232000000.0 -0.009641360491514206 -0.006537173874676228
4236000000.0 -0.0041852304711937904 0.011094873771071434
4240000000.0 0.012190098874270916 0.0015674519818276167
4244000000.0 -0.0014832556480541825 -0.01216976623982191
4248000000.0 -0.01161278784275055 0.004328963812440634
4252000000.0 0.006934711243957281 0.010387911461293697
4256000000.0 0.008275511674582958 -0.009247022680938244
4260000000.0 -0.011005830951035023 -0.00578668899834156
4264000000.0 -0.0029015778563916683 0.01181358564645052
4268000000.0 0.012073076330125332 -0.00011289545363979414
4272000000.0 -0.002934162737801671 -0.011484070681035519
4276000000.0 -0.010392195545136929 0.005438331980258226
4280000000.0 0.0075439270585775375 0.008702960796654224
4284000000.0 0.006694962736219168 -0.009085153229534626
4288000000.0 -0.010124871507287025 -0.004359887447208166
4292000000.0 -0.0017440607771277428 0.01061947550624609
4296000000.0 0.010537517257034779 -0.000601306208409369
4300000000.0 -0.0028336162213236094 -0.009602791629731655
4304000000.0 -0.008562642149627209 0.004756240639835596
4308000000.0 0.006046344060450792 0.00724672619253397
4312000000.0 0.006173945963382721 -0.007184439804404974
4316000000.0 -0.008256844244897366 -0.004409326706081629
4320000000.0 -0.0028181103989481926 0.008822936564683914
4324000000.0 0.009177795611321926 0.0008951656054705381
4328000000.0 -0.0010733044473454356 -0.009205515496432781
4332000000.0 -0.008655693382024765 0.0027972664684057236
4336000000.0 0.004407048691064119 0.007960407063364983
4340000000.0 0.007145432755351067 -0.005822497420012951
4344000000.0 -0.007451895158737898 -0.005859607830643654
4348000000.0 -0.004327781498432159 0.008505105040967464
4352000000.0 0.009564091451466084 0.002592765958979726
4356000000.0 0.0002051224437309429 -0.00980252306908369
4360000000.0 -0.00977212656289339 0.0017287906957790256
4364000000.0 0.003560092765837908 0.009470715187489986
4368000000.0 0.008970080874860287 -0.005724101327359676
4372000000.0 -0.007944242097437382 -0.007541206199675798
4376000000.0 -0.005740190856158733 0.009693222120404243
4380000000.0 0.011124040931463242 0.003100516740232706
4384000000.0 0.0007150284363888204 -0.011816862039268017
4388000000.0 -0.01183047704398632 0.0017456022324040532
4392000000.0 0.004529878962785006 0.011167630553245544
4396000000.0 0.010219331830739975 -0.007498237304389477
4400000000.0 -0.009857568889856339 -0.008037717081606388
4404000000.0 -0.005364331882447004 0.011532275006175041
4408000000.0 0.012742490507662296 0.0023484041448682547
4412000000.0 -0.0010199494427070022 -0.0126991281285882
4416000000.0 -0.012012374587357044 0.004083447158336639
4420000000.0 0.006665876600891352 0.010634818114340305
4424000000.0 0.008346738293766975 -0.008789141662418842
4428000000.0 -0.01026245579123497 -0.005838443525135517
4432000000.0 -0.0035393312573432922 0.010871537029743195
4436000000.0 0.010899958200752735 0.0010235384106636047
4440000000.0 -0.0014932033373042941 -0.010609712451696396
4444000000.0 -0.00967429205775261 0.0034139191266149282
4448000000.0 0.005449171178042889 0.008610602468252182
4452000000.0 0.0072760190814733505 -0.006875372026115656
4456000000.0 -0.008329066447913647 -0.005541881080716848
4460000000.0 -0.0036026148591190577 0.009283064864575863
4464000000.0 0.00977004412561655 0.001425054855644703
4468000000.0 -0.0005385157419368625 -0.009632090106606483
4472000000.0 -0.009217288345098495 0.0020572124049067497
4476000000.0 0.003965348470956087 0.008574377745389938
4480000000.0 0.007837873883545399 -0.005393452011048794
4484000000.0 -0.006864545866847038 -0.006645888555794954
4488000000.0 -0.005080423783510923 0.008168104104697704
4492000000.0 0.00900447927415371 0.003546433988958597
4496000000.0 0.0015957324067130685 -0.00965303834527731
4500000000.0 -0.010197943076491356 0.0006174324662424624
4504000000.0 0.002462440636008978 0.009779417887330055
4508000000.0 0.009357752278447151 -0.004632154945284128
4512000000.0 -0.00619937339797616 -0.008187946863472462
4516000000.0 -0.0069504668936133385 0.008379868231713772
4520000000.0 0.010188477113842964 0.00527165737003088
4524000000.0 0.0026080203242599964 -0.011015420779585838
4528000000.0 -0.012052335776388645 -7.961339724715799e-05
4532000000.0 0.0030584426131099463 0.011779692955315113
4536000000.0 0.010717874392867088 -0.005673338193446398
4540000000.0 -0.008186746388673782 -0.009334184229373932
4544000000.0 -0.007214822340756655 0.010021893307566643
4548000000.0 0.011436805129051208 0.004529882688075304
4552000000.0 0.0019502297509461641 -0.012325897812843323
4556000000.0 -0.01263574231415987 0.0009454607497900724
4560000000.0 0.004157950170338154 0.011807736940681934
4564000000.0 0.01050516590476036 -0.006808742415159941
4568000000.0 -0.008777267299592495 -0.008308262564241886
4572000000.0 -0.005978040862828493 0.010227056220173836
4576000000.0 0.01099883858114481 0.0032290916424244642
4580000000.0 0.000616047065705061 -0.011206035502254963
4584000000.0 -0.010888536460697651 0.001772010698914528
4588000000.0 0.003960283938795328 0.009652077220380306
4592000000.0 0.008599829860031605 -0.005838287062942982
4596000000.0 -0.007521032355725765 -0.007035351358354092
4600000000.0 -0.0051359436474740505 0.008515584282577038
4604000000.0 0.0092625692486763 0.0032139751128852367
4608000000.0 0.0015284455148503184 -0.009465609677135944
4612000000.0 -0.009349314495921135 0.0007394392741844058
4616000000.0 0.002172087784856558 0.008890888653695583
4620000000.0 0.008403205312788486 -0.003967139404267073
4624000000.0 -0.005724981892853975 -0.007310095243155956
4628000000.0 -0.006096355617046356 0.006749324966222048
4632000000.0 0.00776670640334487 0.00463849538937211
4636000000.0 0.003051703330129385 -0.008445678278803825
4640000000.0 -0.009028499014675617 -0.0014137011021375656
4644000000.0 9.109373786486685e-05 0.009302093647420406
4648000000.0 0.009380673058331013 -0.0020617875270545483
4652000000.0 -0.003988243639469147 -0.008543257601559162
4656000000.0 -0.007992597296833992 0.005753584671765566
4660000000.0 0.007388326805084944 0.006583911366760731
4664000000.0 0.005161188542842865 -0.008941208012402058
4668000000.0 -0.010193117894232273 -0.003104784060269594
4672000000.0 -0.0006550381076522171 0.011019653640687466
4676000000.0 0.011168590746819973 -0.0020599656272679567
4680000000.0 -0.004424058832228184 -0.010463695973157883
4684000000.0 -0.00926421582698822 0.006924119312316179
4688000000.0 0.008865165524184704 0.007371025159955025
4692000000.0 0.005194162018597126 -0.010501761920750141
4696000000.0 -0.011465112678706646 -0.0025114482268691063
4700000000.0 0.0002646208449732512 0.012033541686832905
4704000000.0 0.011460154317319393 -0.0031071207486093044
4708000000.0 -0.005710151977837086 -0.010115940123796463
4712000000.0 -0.008405773900449276 0.007974943146109581
4716000000.0 0.009588135406374931 0.006136232055723667
4720000000.0 0.0035793983843177557 -0.010502796620130539
4724000000.0 -0.010843474417924881 -0.0011663989862427115
4728000000.0 0.0014746708329766989 0.010607323609292507
4732000000.0 0.009947345592081547 -0.0036385832354426384
4736000000.0 -0.005632446147501469 -0.008337767794728279
4740000000.0 -0.006905338726937771 0.007198922336101532
4744000000.0 0.008245515637099743 0.004902306944131851
4748000000.0 0.0031848778016865253 -0.008694157004356384
4752000000.0 -0.008954253979027271 -0.0014442834071815014
4756000000.0 0.0002919897669926286 0.008955457247793674
4760000000.0 0.008743202313780785 -0.0022494446020573378
4764000000.0 -0.003991465549916029 -0.008085852488875389
4768000000.0 -0.007103395648300648 0.0054572634398937225
4772000000.0 0.006833824794739485 0.00562176201492548
4776000000.0 0.004083613399416208 -0.007928851991891861
4780000000.0 -0.008441881276667118 -0.0025617012288421392
4784000000.0 -0.0006893766694702208 0.008964146487414837
4788000000.0 0.008952246978878975 -0.0014278121525421739
4792000000.0 -0.003197618294507265 -0.008430938236415386
4796000000.0 -0.007636787835508585 0.005117540247738361
4800000000.0 0.0065567148849368095 0.0063827005214989185
4804000000.0 0.005186087917536497 -0.007642577867954969
4808000000.0 -0.00889927614480257 -0.0034104229416698217
4812000000.0 -0.0013003748608753085 0.009740205481648445
4816000000.0 0.009998995810747147 -0.0008456683135591447
4820000000.0 -0.0033909014891833067 -0.009598853066563606
4824000000.0 -0.008634987287223339 0.005452275276184082
4828000000.0 0.00737359281629324 0.006956271827220917
4832000000.0 0.0048229871317744255 -0.008825452998280525
4836000000.0 -0.009833727963268757 -0.0029378882609307766
4840000000.0 -0.0002660742902662605 0.010383294895291328
4844000000.0 0.009950816631317139 -0.0021083008032292128
4848000000.0 -0.004481053911149502 -0.009110001847147942
4852000000.0 -0.007643853779882193 0.006435034796595573
4856000000.0 0.007973002269864082 0.005838883109390736
4860000000.0 0.003654802916571498 -0.008868811652064323
4864000000.0 -0.009036202915012836 -0.0014719608006998897
4868000000.0 0.0003667768032755703 0.008981448598206043
4872000000.0 0.008628522977232933 -0.002417581621557474
4876000000.0 -0.004311542026698589 -0.007581023033708334
4880000000.0 -0.006155729293823242 0.00561160035431385
4884000000.0 0.006967140361666679 0.004824480973184109
4888000000.0 0.003101419424638152 -0.007446331437677145
4892000000.0 -0.007852606475353241 -0.0015595743898302317
4896000000.0 0.00019587161659728736 0.007843444123864174
4900000000.0 0.007590709254145622 -0.0016351876547560096
4904000000.0 -0.003218356752768159 -0.006855431478470564
4908000000.0 -0.006057505030184984 0.004472577478736639
4912000000.0 0.005447038449347019 0.00481073185801506
4916000000.0 0.003744695568457246 -0.006368903908878565
4920000000.0 -0.006975733209401369 -0.0022640759125351906
4924000000.0 -0.000885461107827723 0.007422561291605234
4928000000.0 0.00752565311267972 -0.0007644574507139623
4932000000.0 -0.0023325139191001654 -0.007180407643318176
4936000000.0 -0.006620790809392929 0.0036455271765589714
4940000000.0 0.004915328696370125 0.005638750270009041
4944000000.0 0.0045639039017260075 -0.006103911902755499
4948000000.0 -0.007154824677854776 -0.00313507579267025
4952000000.0 -0.00152957858517766 0.0077466703951358795
4956000000.0 0.008078456856310368 -0.00025147455744445324
4960000000.0 -0.0020410316064953804 -0.007830923423171043
4964000000.0 -0.007281223312020302 0.0038274682592600584
4968000000.0 0.005540383048355579 0.006291464436799288
4972000000.0 0.004867978394031525 -0.006900894455611706
4976000000.0 -0.007862135767936707 -0.0032390549313277006
4980000000.0 -0.0010870086262002587 0.008585485629737377
4984000000.0 0.00854956079274416 -0.0008315598824992776
4988000000.0 -0.003024916397407651 -0.008135698735713959
4992000000.0 -0.007127315737307072 0.004781106952577829
4996000000.0 0.0062910281121730804 0.005837733391672373
5000000000.0 0.004085669759660959 -0.007299769204109907
5004000000.0 -0.007893417961895466 -0.0022189775481820107
5008000000.0 -0.0003021043667104095 0.008070317097008228
5012000000.0 0.0077793896198272705 -0.0015445799799636006
5016000000.0 -0.003206168068572879 -0.007087918929755688
5020000000.0 -0.006183943711221218 0.004747934639453888
5024000000.0 0.005927071440964937 0.004757511429488659
5028000000.0 0.003491684328764677 -0.006815573666244745
5032000000.0 -0.0072608208283782005 -0.0016571326414123178
5036000000.0 -2.7855403459398076e-05 0.007186298258602619
5040000000.0 0.006908665876835585 -0.0012820505071431398
5044000000.0 -0.0026666633784770966 -0.006415979471057653
5048000000.0 -0.005634049419313669 0.003990712109953165
5052000000.0 0.004938960075378418 0.004807855002582073
5056000000.0 0.00342260068282485 -0.005854785908013582
5060000000.0 -0.0066087087616324425 -0.0023991449270397425
5064000000.0 -0.000695226073730737 0.006914884317666292
5068000000.0 0.006894340738654137 -0.0006420256104320288
5072000000.0 -0.0019502858631312847 -0.006538107059895992
5076000000.0 -0.0058686938136816025 0.0033489102497696877
5080000000.0 0.004656638018786907 0.005062556359916925
5084000000.0 0.004090145230293274 -0.00556940957903862
5088000000.0 -0.006439283490180969 -0.002907401416450739
5092000000.0 -0.0013212390476837754 0.007087581790983677
5096000000.0 0.00742459949105978 -0.00010404766362626106
5100000000.0 -0.0018509190995246172 -0.0073274108581244946
5104000000.0 -0.006769489962607622 0.0035234226379543543
5108000000.0 0.005004681181162596 0.005749116186052561
5112000000.0 0.004654668737202883 -0.006324106827378273
5116000000.0 -0.00722974818199873 -0.0027435608208179474
5120000000.0 -0.0013347187777981162 0.007784889079630375
5124000000.0 0.007754189893603325 -0.0008391983574256301
5128000000.0 -0.00243737711571157 -0.0075628687627613544
5132000000.0 -0.006770310923457146 0.004195121116936207
5136000000.0 0.005615433678030968 0.005522828549146652
5140000000.0 0.004162462893873453 -0.006639539729803801
5144000000.0 -0.007351980544626713 -0.0023011011071503162
5148000000.0 -0.0004725433245766908 0.007620388176292181
5152000000.0 0.007452167104929686 -0.0011052732588723302
5156000000.0 -0.0027258824557065964 -0.006982663180679083
5160000000.0 -0.006083964370191097 0.003949972800910473
5164000000.0 0.005249070469290018 0.004892636090517044
5168000000.0 0.0037421919405460358 -0.006205401383340359
5172000000.0 -0.006814847234636545 -0.0021334371995180845
5176000000.0 -0.0005939662805758417 0.00696259131655097
5180000000.0 0.006785385776311159 -0.0008799092029221356
5184000000.0 -0.0023081093095242977 -0.00636502169072628
5188000000.0 -0.0056274705566465855 0.0034712799824774265
5192000000.0 0.004524097312241793 0.004710739012807608
5196000000.0 0.0037896321155130863 -0.0054433392360806465
5200000000.0 -0.00613408861681819 -0.002464521676301956
5204000000.0 -0.0011431978782638907 0.006525615695863962
5208000000.0 0.006490385625511408 -0.0003449894720688462
5212000000.0 -0.0016034230357035995 -0.006306369788944721
5216000000.0 -0.005814044736325741 0.0028647775761783123
5220000000.0 0.003907460719347 0.005032917484641075
5224000000.0 0.0043411217629909515 -0.004982299637049437
5228000000.0 -0.005620782263576984 -0.0030688822735100985
5232000000.0 -0.0018402670975774527 0.006312879733741283
5236000000.0 0.006649591028690338 0.0004998368094675243
5240000000.0 -0.0007985968259163201 -0.0067263031378388405
5244000000.0 -0.00644603231921792 0.002307146554812789
5248000000.0 0.0035815220326185226 0.005857236683368683
5252000000.0 0.004961394239217043 -0.004946256522089243
5256000000.0 -0.006014098878949881 -0.0037674978375434875
5260000000.0 -0.0023423016536980867 0.00673619145527482
5264000000.0 0.007008836604654789 0.0008678312296979129
5268000000.0 -0.0008165804320015013 -0.0072758737951517105
5272000000.0 -0.0067288680002093315 0.0026341297198086977
5276000000.0 0.004054415505379438 0.0061197709292173386
5280000000.0 0.005147166084498167 -0.00529787503182888
5284000000.0 -0.006197760812938213 -0.003797221463173628
5288000000.0 -0.002165566198527813 0.006986809428781271
5292000000.0 0.007228651084005833 0.00046074058627709746
5296000000.0 -0.0011492337798699737 -0.0069995177909731865
5300000000.0 -0.006607445422559977 0.002811419777572155
5304000000.0 0.00421651778742671 0.005782607011497021
5308000000.0 0.004619569517672062 -0.005164663307368755
5312000000.0 -0.006130629684776068 -0.0033564891200512648
5316000000.0 -0.0019889993127435446 0.006714680697768927
5320000000.0 0.00679051922634244 0.00040385371539741755
5324000000.0 -0.0010443116771057248 -0.006658635567873716
5328000000.0 -0.006046900991350412 0.0023774064611643553
5332000000.0 0.003673486178740859 0.005396842956542969
5336000000.0 0.004441144410520792 -0.004700192715972662
5340000000.0 -0.00550056854262948 -0.0032624450977891684
5344000000.0 -0.00223509781062603 0.005932976491749287
5348000000.0 0.0061113350093364716 0.0006656110053882003
5352000000.0 -0.0005091041093692183 -0.0061768232844769955
5356000000.0 -0.005915696732699871 0.0016517643816769123
5360000000.0 0.0029851808212697506 0.005293417721986771
5364000000.0 0.004755429457873106 -0.0041001359932124615
5368000000.0 -0.004984190687537193 -0.0038274461403489113
5372000000.0 -0.0027527513448148966 0.00560988811776042
5376000000.0 0.006207052152603865 0.001448671449907124
5380000000.0 9.07553403521888e-05 -0.0062505085952579975
5384000000.0 -0.00625084713101387 0.0011725483927875757
5388000000.0 0.0025040979962795973 0.005845540203154087
5392000000.0 0.005231296177953482 -0.003767774673178792
5396000000.0 -0.004825939889997244 -0.004349391907453537
5400000000.0 -0.0033805507700890303 0.005742534529417753
5404000000.0 0.006295459344983101 0.001982257701456547
5408000000.0 0.0005225875065661967 -0.006727879401296377
5412000000.0 -0.006749546155333519 0.0010630367323756218
5416000000.0 0.002657259814441204 0.006492901593446732
5420000000.0 0.005665523000061512 -0.004165750928223133
5424000000.0 -0.0052542919293046 -0.004543696530163288
5428000000.0 -0.0032380246557295322 0.006244531832635403
5432000000.0 0.006821358110755682 0.0014555883826687932
5436000000.0 -0.00015949286171235144 -0.007068409584462643
5440000000.0 -0.006670172326266766 0.0018489561043679714
5444000000.0 0.00333690014667809 0.006000514142215252
5448000000.0 0.005113386083394289 -0.004622325301170349
5452000000.0 -0.005735732614994049 -0.003794585121795535
5456000000.0 -0.002320819767192006 0.0062254322692751884
5460000000.0 0.006524828262627125 0.0007941551157273352
5464000000.0 -0.0006059593288227916 -0.006334991194307804
5468000000.0 -0.005884576588869095 0.002081236569210887
5472000000.0 0.003176978323608637 0.005200226325541735
5476000000.0 0.004442643374204636 -0.004205362871289253
5480000000.0 -0.005078133661299944 -0.003194525372236967
5484000000.0 -0.0019238566746935248 0.005524760577827692
5488000000.0 0.005772482603788376 0.0008574697421863675
5492000000.0 -0.00025393502437509596 -0.005679266061633825
5496000000.0 -0.005287662614136934 0.0015536985592916608
5500000000.0 0.002515178406611085 0.004870567005127668
5504000000.0 0.004198553040623665 -0.00368856661953032
5508000000.0 -0.004363022744655609 -0.0032938725780695677
5512000000.0 -0.0023082999978214502 0.0048925126902759075
5516000000.0 0.005298484582453966 0.0011174811515957117
5520000000.0 1.779861850081943e-05 -0.005186553578823805
5524000000.0 -0.004997876938432455 0.001054538181051612
5528000000.0 0.0019749952480196953 0.004741115961223841
5532000000.0 0.004196857567876577 -0.0029982496052980423
5536000000.0 -0.0038381454069167376 -0.003591797547414899
5540000000.0 -0.0026347225066274405 0.004394944757223129
5544000000.0 0.004797103814780712 0.001546643441542983
5548000000.0 0.000469928199891001 -0.005081473384052515
5552000000.0 -0.0052054752595722675 0.0005301746423356235
5556000000.0 0.0014292749110609293 0.004887256771326065
5560000000.0 0.004599799867719412 -0.0025433858390897512
5564000000.0 -0.0037532984279096127 -0.003959548659622669
5568000000.0 -0.002973636845126748 0.004481261596083641
5572000000.0 0.00508814537897706 0.001866600476205349
5576000000.0 0.0007199191022664309 -0.005385236348956823
5580000000.0 -0.005302101373672485 0.0004233595391269773
5584000000.0 0.0017015158664435148 0.005305428057909012
5588000000.0 0.004676636774092913 -0.0029638074338436127
5592000000.0 -0.004067168105393648 -0.003860165597870946
5596000000.0 -0.0025699243415147066 0.00477775139734149
5600000000.0 0.00500107416883111 0.0012544509954750538
5604000000.0 0.00028788187773898244 -0.005127739626914263
5608000000.0 -0.005059065762907267 0.000715308531653136
5612000000.0 0.0018147989176213741 0.004725283943116665
5616000000.0 0.0043637254275381565 -0.0028750705532729626
5620000000.0 -0.0038460877258330584 -0.003527760272845626
5624000000.0 -0.0024022581055760384 0.00435999408364296
5628000000.0 0.004740133881568909 0.0014222984900698066
5632000000.0 0.00033370632445439696 -0.004795709624886513
5636000000.0 -0.00466223293915391 0.0005665473290719092
5640000000.0 0.0015135857975110412 0.004455670714378357
5644000000.0 0.004050799645483494 -0.0025026253424584866
5648000000.0 -0.0033381558023393154 -0.0033951406367123127
5652000000.0 -0.002476324560120702 0.003905595513060689
5656000000.0 0.0043259356170892715 0.0016531290020793676
5660000000.0 0.0006714112823829055 -0.0044234138913452625
5664000000.0 -0.0043889801017940044 0.00010588538134470582
5668000000.0 0.0010317714186385274 0.004383902996778488
5672000000.0 0.004038814455270767 -0.0019304780289530754
5676000000.0 -0.0027932862285524607 -0.0036530252546072006
5680000000.0 -0.002879844745621085 0.003517262637615204
5684000000.0 0.004017617553472519 0.0020166002213954926
5688000000.0 0.001241559162735939 -0.004534672014415264
5692000000.0 -0.004598304163664579 -0.00038101038080640137
5696000000.0 0.0006361110135912895 0.00479405652731657
5700000000.0 0.004477938171476126 -0.0016535670729354024
5704000000.0 -0.002842583227902651 -0.004081518854945898
5708000000.0 -0.0032666989136487246 0.00357641838490963
5712000000.0 0.004368399269878864 0.0023702543694525957
5716000000.0 0.0015190666308626533 -0.004726330749690533
5720000000.0 -0.005209829192608595 -0.0005075971712358296
5724000000.0 0.0005678224842995405 0.00505549693480134
5728000000.0 0.005080235656350851 -0.0019479788606986403
5732000000.0 -0.0032412430737167597 -0.004524571821093559
5736000000.0 -0.0036467709578573704 0.004175049252808094
5740000000.0 0.004880666732788086 0.0024089470971375704
5744000000.0 0.0012681953376159072 -0.005300483200699091
5748000000.0 -0.0052807326428592205 -0.00017252567340619862
5752000000.0 0.00108494539745152 0.005342142656445503
5756000000.0 0.004956941120326519 -0.002268014010041952
5760000000.0 -0.0034407442435622215 -0.0041568223387002945
5764000000.0 -0.0033102151937782764 0.004216623492538929
5768000000.0 0.004809602163732052 0.002185405232012272
5772000000.0 0.00099947489798069 -0.005137655884027481
5776000000.0 -0.005305768456310034 0.00012049540964653715
5780000000.0 0.0011026173597201705 0.005032351706176996
5784000000.0 0.004684424959123135 -0.0023795526940375566
5788000000.0 -0.0032501216046512127 -0.003863133490085602
5792000000.0 -0.0031208349391818047 0.00396155659109354
5796000000.0 0.004435144830495119 0.0020631630904972553
5800000000.0 0.0012942318571731448 -0.0047355410642921925
5804000000.0 -0.004932706709951162 -0.00030665958183817565
5808000000.0 0.0009842028375715017 0.004751349333673716
5812000000.0 0.004566494841128588 -0.0017574975499883294
5816000000.0 -0.002663126913830638 -0.00391610711812973
5820000000.0 -0.003293273039162159 0.003476138459518552
5824000000.0 0.00412617065012455 0.002493048319593072
5828000000.0 0.0015812348574399948 -0.004654589109122753
5832000000.0 -0.004935677163302898 -0.0006209671264514327
5836000000.0 0.0005693270359188318 0.005003799218684435
5840000000.0 0.0048258546739816666 -0.0018923623720183969
5844000000.0 -0.0026572125498205423 -0.004301464185118675
5848000000.0 -0.003759062383323908 0.003401893423870206
5852000000.0 0.004223426803946495 0.002936574397608638
5856000000.0 0.0018916890257969499 -0.004719185177236795
5860000000.0 -0.005255186464637518 -0.0008741373894736171
5864000000.0 0.00047292522503994405 0.00525367958471179
5868000000.0 0.005263078957796097 -0.0016227663727477193
5872000000.0 -0.0027695372700691223 -0.004761219024658203
5876000000.0 -0.004092618357390165 0.0038122315891087055
5880000000.0 0.00462663359940052 0.0031106823589652777
5884000000.0 0.0018820046680048108 -0.005059927236288786
5888000000.0 -0.005593293346464634 -0.0006768925813958049
5892000000.0 0.000680543074849993 0.005639584735035896
5896000000.0 0.005168372765183449 -0.00190825411118567
5900000000.0 -0.0031579521019011736 -0.0044465926475822926
5904000000.0 -0.0038480465300381184 0.003978584427386522
5908000000.0 0.004745930433273315 0.0026225759647786617
5912000000.0 0.0014160122955217957 -0.00518433190882206
5916000000.0 -0.0051576243713498116 -3.488353831926361e-05
5920000000.0 0.00088156433776021 0.005141974426805973
5924000000.0 0.004522260278463364 -0.0020476821810007095
5928000000.0 -0.0027906601317226887 -0.003983644302934408
5932000000.0 -0.003097380278632045 0.0034809927456080914
5936000000.0 0.004094578791409731 0.002394255017861724
5940000000.0 0.0014853294705972075 -0.004575580358505249
5944000000.0 -0.004645870067179203 -0.0004143139231018722
5948000000.0 0.0005578139098361135 0.004653872922062874
5952000000.0 0.004376152530312538 -0.0013911608839407563
5956000000.0 -0.002152932807803154 -0.003935263957828283
5960000000.0 -0.0034183997195214033 0.002838303567841649
5964000000.0 0.0035329977981746197 0.0029119206592440605
5968000000.0 0.0021498030982911587 -0.004080338403582573
5972000000.0 -0.004396454431116581 -0.001316599897108972
5976000000.0 -0.0002394326584180817 0.004597284831106663
5980000000.0 0.00460953451693058 -0.0007020860794000328
5984000000.0 -0.0016242442652583122 -0.004287053365260363
5988000000.0 -0.0041079893708229065 0.002558621810749173
5992000000.0 0.0034100033808499575 0.0035095657221972942
5996000000.0 0.0028121783398091793 -0.004180714953690767
6000000000.0 -0.004596821032464504 -0.0018329969607293606
6004000000.0 -0.0006989964167587459 0.0049520740285515785
6008000000.0 0.005144163966178894 -0.0004491388099268079
6012000000.0 -0.0015902237500995398 -0.004831923171877861
6016000000.0 -0.004574447870254517 0.002698074094951153
6020000000.0 0.0038405456580221653 0.003862230107188225
6024000000.0 0.002793730702251196 -0.004594132304191589
6028000000.0 -0.0051255295984447 -0.0016266300808638334
6032000000.0 -0.00039587097126059234 0.005289753898978233
6036000000.0 0.005237538367509842 -0.0008988772751763463
6040000000.0 -0.0020364527590572834 -0.004967090208083391
6044000000.0 -0.004284246359020472 0.003187761642038822
6048000000.0 0.004112733993679285 0.003489780006930232
6052000000.0 0.0024006098974496126 -0.004619244486093521
6056000000.0 -0.004944976419210434 -0.0011498498497530818
6060000000.0 -3.558354001143016e-05 0.004970104433596134
6064000000.0 0.004730903543531895 -0.0009229984716512263
6068000000.0 -0.0018299960065633059 -0.004349247552454472
6072000000.0 -0.003637452609837055 0.0028393366374075413
6076000000.0 0.003407791256904602 0.0030956738628447056
6080000000.0 0.0022941625211387873 -0.003916468936949968
6084000000.0 -0.0043553453870117664 -0.0013460410991683602
6088000000.0 -0.0003478825092315674 0.0044037881307303905
6092000000.0 0.004368089605122805 -0.0006928619695827365
6096000000.0 -0.001491461182013154 -0.00412221672013402
6100000000.0 -0.003510558046400547 0.00232208170928061
6104000000.0 0.002914247801527381 0.003069404512643814
6108000000.0 0.0023998944088816643 -0.00365880667231977
6112000000.0 -0.003939933609217405 -0.001820788369514048
6116000000.0 -0.0008534310036338866 0.004283345304429531
6120000000.0 0.004439092241227627 -0.00010050534183392301
6124000000.0 -0.0010226364247500896 -0.0042854370549321175
6128000000.0 -0.004029841162264347 0.0018600220791995525
6132000000.0 0.0025746480096131563 0.0035570745822042227
6136000000.0 0.0030072221998125315 -0.0036148398648947477
6140000000.0 -0.004137955605983734 -0.0021570792887359858
6144000000.0 -0.001139064901508391 0.004519729409366846
6148000000.0 0.004655187949538231 0.00018736618221737444
6152000000.0 -0.0007894625305198133 -0.004551753401756287
6156000000.0 -0.004359183833003044 0.0019158116774633527
6160000000.0 0.002853748621419072 0.0039605493657290936
6164000000.0 0.0031195597257465124 -0.003911917097866535
6168000000.0 -0.004402914550155401 -0.0020251052919775248
6172000000.0 -0.001097752945497632 0.004807061981409788
6176000000.0 0.004848856013268232 -0.00018026372708845884
6180000000.0 -0.0012831701897084713 -0.004682756494730711
6184000000.0 -0.004095154814422131 0.002427963074296713
6188000000.0 0.0032224892638623714 0.0035316557623445988
6192000000.0 0.002579163294285536 -0.0038979591336101294
6196000000.0 -0.0043319156393408775 -0.001493140822276473
6200000000.0 -0.0005300476914271712 0.004456991329789162
6204000000.0 0.004371395334601402 -0.0005168020143173635
6208000000.0 -0.0014743803767487407 -0.004086106084287167
6212000000.0 -0.003477400867268443 0.002137682866305113
6216000000.0 0.002832520054653287 0.0028904168866574764
6220000000.0 0.0022670510224997997 -0.0034078278113156557
6224000000.0 -0.003592211287468672 -0.0015066663036122918
6228000000.0 -0.0006023839814588428 0.004009873140603304
6232000000.0 0.003906321711838245 -0.00022644938144367188
6236000000.0 -0.0009781346889212728 -0.0037036400754004717
6240000000.0 -0.00322217820212245 0.0018795996438711882
6244000000.0 0.0024843330029398203 0.002834952436387539
6248000000.0 0.002115938114002347 -0.0028477106243371964
6252000000.0 -0.00348700862377882 -0.001636067172512412
6256000000.0 -0.0009949792874976993 0.0035369310062378645
6260000000.0 0.003739893902093172 9.31182294152677e-05
6264000000.0 -0.0006410229834727943 -0.0036782699171453714
6268000000.0 -0.00345175270922482 0.0014424229739233851
6272000000.0 0.0021267414558678865 0.003193721640855074
6276000000.0 0.002570534124970436 -0.0027639262843877077
6280000000.0 -0.0032070931047201157 -0.0019519188208505511
6284000000.0 -0.0011493609054014087 0.003673763945698738
6288000000.0 0.0038272817619144917 0.0003366008459124714
6292000000.0 -0.0005255771684460342 -0.003906472586095333
6296000000.0 -0.0038140700198709965 0.0015263520181179047
6300000000.0 0.0023602726869285107 0.0032701303716748953
6304000000.0 0.002709346590563655 -0.0030696908943355083
6308000000.0 -0.0036300893407315016 -0.0018535191193223
6312000000.0 -0.0009876801632344723 0.003961522132158279
6316000000.0 0.00407484732568264 9.081453754333779e-05
6320000000.0 -0.0009898344287648797 -0.0038823692593723536
6324000000.0 -0.0035852252040058374 0.0018018016126006842
6328000000.0 0.0025880092289298773 0.0029987466987222433
6332000000.0 0.002438238589093089 -0.003217892488464713
6336000000.0 -0.003548298729583621 -0.001547517254948616
6340000000.0 -0.0006107052904553711 0.0037303888238966465
6344000000.0 0.003756713354960084 -0.00022811304370407015
6348000000.0 -0.001029259874485433 -0.0034899888560175896
6352000000.0 -0.0032279659062623978 0.0017621786100789905
6356000000.0 0.0024235534947365522 0.0027020752895623446
6360000000.0 0.0021348262671381235 -0.00282091973349452
6364000000.0 -0.0031814139802008867 -0.0014218974392861128
6368000000.0 -0.0006748992600478232 0.003433187259361148
6372000000.0 0.0034393598325550556 -6.131610280135646e-05
6376000000.0 -0.0008022889960557222 -0.0033495239913463593
6380000000.0 -0.003068771678954363 0.001384417642839253
6384000000.0 0.002051072660833597 0.002762979594990611
6388000000.0 0.0022536111064255238 -0.002535806270316243
6392000000.0 -0.003042260417714715 -0.0016570985317230225
6396000000.0 -0.0009868418565019965 0.0031440132297575474
6400000000.0 0.003357249777764082 0.00028638928779400885
6404000000.0 -0.0004978823708370328 -0.003396695014089346
6408000000.0 -0.0033145935740321875 0.0011739174369722605
6412000000.0 0.0018689398420974612 0.0030404964927583933
6416000000.0 0.002735001500695944 -0.0025919503532350063
6420000000.0 -0.003216365585103631 -0.0019687460735440254
6424000000.0 -0.0012280505616217852 0.003559553762897849
6428000000.0 0.003727693809196353 0.000339319376507774
6432000000.0 -0.0004931927542202175 -0.0037496695294976234
6436000000.0 -0.0036011573392897844 0.0012926579220220447
6440000000.0 0.0021013393998146057 0.0033028139732778072
6444000000.0 0.0027409768663346767 -0.002887301379814744
6448000000.0 -0.003552238456904888 -0.0018860918935388327
6452000000.0 -0.001105189323425293 0.0038214907981455326
6456000000.0 0.0040047066286206245 5.1225008064648136e-05
6460000000.0 -0.0008442173711955547 -0.003906812984496355
6464000000.0 -0.0034689612220972776 0.00165744055993855
6468000000.0 0.0025035867001861334 0.0030353302136063576
6472000000.0 0.0023351453710347414 -0.003037211485207081
6476000000.0 -0.003498812671750784 -0.0016335558611899614
6480000000.0 -0.0007828803500160575 0.003764500841498375
6484000000.0 0.0037363602314144373 -6.280662637436762e-05
6488000000.0 -0.0009372140048071742 -0.0035003747325390577
6492000000.0 -0.003281485754996538 0.0016607424477115273
6496000000.0 0.002192705636844039 0.0028433899860829115
6500000000.0 0.0022650689352303743 -0.002795583102852106
6504000000.0 -0.0033080424182116985 -0.001599985989741981
6508000000.0 -0.000854937476105988 0.003426757175475359
6512000000.0 0.0035248459316790104 7.343066681642085e-05
6516000000.0 -0.0005806372500956059 -0.0033971485681831837
6520000000.0 -0.0032146968878805637 0.001338865258730948
6524000000.0 0.0019285721937194467 0.0028521623462438583
6528000000.0 0.0024175725411623716 -0.0025426773354411125
6532000000.0 -0.0030352985486388206 -0.0017483894480392337
6536000000.0 -0.0010346296476200223 0.0032770123798400164
6540000000.0 0.003521422389894724 0.0003091000544372946
6544000000.0 -0.0003289699670858681 -0.003449637908488512
6548000000.0 -0.003335971152409911 0.0010083636734634638
6552000000.0 0.0018059761496260762 0.0032384428195655346
6556000000.0 0.0028150840662419796 -0.002511522965505719
6560000000.0 -0.0031086059752851725 -0.0021315154153853655
6564000000.0 -0.0014611309161409736 0.0035973044577986
6568000000.0 0.00385332596488297 0.0004987214924767613
6572000000.0 -0.0003179512859787792 -0.003911158069968224
6576000000.0 -0.003787185065448284 0.0011745687806978822
6580000000.0 0.0020220517180860043 0.003436287399381399
6584000000.0 0.00283834314905107 -0.002917978912591934
6588000000.0 -0.003476455807685852 -0.002184287179261446
6592000000.0 -0.0011572007788345218 0.0038884656969457865
6596000000.0 0.003968707751482725 0.00022571947192773223
6600000000.0 -0.0006502234609797597 -0.0038842703215777874
6604000000.0 -0.003659205511212349 0.0015136629808694124
6608000000.0 0.002327085705474019 0.0031991528812795877
6612000000.0 0.0024570038076490164 -0.00304873357526958
6616000000.0 -0.0033836502116173506 -0.0017272522673010826
6620000000.0 -0.0009969811653718352 0.0036654858849942684
6624000000.0 0.0035340958274900913 0.00010788740473799407
6628000000.0 -0.0006108864909037948 -0.0034672252368181944
6632000000.0 -0.0032480128575116396 0.0013742895098403096
6636000000.0 0.002035991521552205 0.0027758076321333647
6640000000.0 0.0023505024146288633 -0.0025646171998232603
6644000000.0 -0.0028315940871834755 -0.001698145060800016
6648000000.0 -0.0010181787656620145 0.0031004438642412424
6652000000.0 0.0032259835861623287 0.00031979469349607825
6656000000.0 -0.00026939433882944286 -0.0031350699719041586
6660000000.0 -0.0029599873814731836 0.0009736439096741378
6664000000.0 0.0014315074076876044 0.0028213136829435825
6668000000.0 0.002419757656753063 -0.00202372157946229
6672000000.0 -0.0023333283606916666 -0.001982618821784854
6676000000.0 -0.0014671134995296597 0.002874523401260376
6680000000.0 0.0030578323639929295 0.000970908033195883
6684000000.0 0.000246737792622298 -0.003196374047547579
6688000000.0 -0.0032190110068768263 0.0003391623613424599
6692000000.0 0.0010197837837040424 0.003180908039212227
6696000000.0 0.0030212062411010265 -0.001794059993699193
6700000000.0 -0.002321310807019472 -0.0024808659218251705
6704000000.0 -0.001915795961394906 0.0029022572562098503
6708000000.0 0.0032545446883887053 0.0011865101987496018
6712000000.0 0.0004753790854010731 -0.0035576375667005777
6716000000.0 -0.0036346609704196453 0.0003302912227809429
6720000000.0 0.0011141805443912745 0.0035001644864678383
6724000000.0 0.0032944143749773502 -0.001990286400541663
6728000000.0 -0.002769958460703492 -0.0025980116333812475
6732000000.0 -0.0019499027403071523 0.0032946537248790264
6736000000.0 0.003618737682700157 0.0010996449273079634
6740000000.0 0.00020201096776872873 -0.003850155044347048
6744000000.0 -0.0036589335650205612 0.0006525050848722458
6748000000.0 0.0016322023002430797 0.0033970836084336042
6752000000.0 0.002945002168416977 -0.0023834113962948322
6756000000.0 -0.002913724398240447 -0.0021805495489388704
6760000000.0 -0.0013921806821599603 0.003250563284382224
6764000000.0 0.003430823562666774 0.0007482863729819655
6768000000.0 -0.0001736731210257858 -0.0033962628804147243
6772000000.0 -0.003212095471099019 0.0008942927233874798
6776000000.0 0.0014533624053001404 0.0028455203864723444
6780000000.0 0.002421337878331542 -0.002016056329011917
6784000000.0 -0.0024699175264686346 -0.0019171267049387097
6788000000.0 -0.0013080069329589605 0.002602237742394209
6792000000.0 0.002810975769534707 0.0006620237836614251
6796000000.0 0.00011970938794547692 -0.0028965030796825886
6800000000.0 -0.0027571707032620907 0.0005254778661765158
6804000000.0 0.0010592428734526038 0.002623853273689747
6808000000.0 0.002302511129528284 -0.0014405976980924606
6812000000.0 -0.0019437300506979227 -0.001983687048777938
6816000000.0 -0.0015839919215068221 0.002262224443256855
6820000000.0 0.002511465223506093 0.001014324720017612
6824000000.0 0.0004773683613166213 -0.002603971166536212
6828000000.0 -0.0026998911052942276 5.109818812343292e-05
6832000000.0 0.0006796881789341569 0.0027295465115457773
6836000000.0 0.0024850538466125727 -0.0011575024109333754
6840000000.0 -0.001661480637267232 -0.0022098813205957413
6844000000.0 -0.0017506869044154882 0.002161251613870263
6848000000.0 0.0024696059990674257 0.001305379904806614
6852000000.0 0.0007227547466754913 -0.002822666661813855
6856000000.0 -0.002960295882076025 -0.0001312132808379829
6860000000.0 0.0005274221184663475 0.002829577075317502
6864000000.0 0.002685832092538476 -0.0011351873399689794
6868000000.0 -0.0017571060452610254 -0.0024623617064207792
6872000000.0 -0.00192998256534338 0.002179814502596855
6876000000.0 0.0027334908954799175 0.0014168614288792014
6880000000.0 0.0007841995684430003 -0.0029219449497759342
6884000000.0 -0.002870121505111456 -0.00014834810281172395
6888000000.0 0.0005487384623847902 0.0028625046834349632
6892000000.0 0.0026641166768968105 -0.0013002032646909356
6896000000.0 -0.0019829352386295795 -0.0022981176152825356
6900000000.0 -0.001734718563966453 0.002469567582011223
6904000000.0 0.0026462776586413383 0.0010780597804114223
6908000000.0 0.0003764892171602696 -0.00274317036382854
6912000000.0 -0.002746486570686102 0.00032208822085522115
6916000000.0 0.0009034589747898281 0.0025920430198311806
6920000000.0 0.0021778354421257973 -0.001288693048991263
6924000000.0 -0.0017565855523571372 -0.0017710319953039289
6928000000.0 -0.0013851177645847201 0.002101878635585308
6932000000.0 0.002211076207458973 0.0007638554670847952
6936000000.0 0.0003841556026600301 -0.002352597890421748
6940000000.0 -0.0022633993066847324 0.00013120693620294333
6944000000.0 0.0005268389359116554 0.0021345121785998344
6948000000.0 0.0019192065810784698 -0.0010977545753121376
6952000000.0 -0.0014163533924147487 -0.0016342700691893697
6956000000.0 -0.001270756940357387 0.001557201612740755
6960000000.0 0.0018378093373030424 0.0009074840927496552
6964000000.0 0.0006015688995830715 -0.001977158710360527
6968000000.0 -0.0019702704157680273 -7.251611532410607e-05
6972000000.0 0.0002968428307212889 0.0020590275526046753
6976000000.0 0.0019016499863937497 -0.0007177423103712499
6980000000.0 -0.0011212684912607074 -0.0017600128194317222
6984000000.0 -0.0015155656728893518 0.0014123956207185984
6988000000.0 0.0016722505679354072 0.001196971395984292
6992000000.0 0.0007846038788557053 -0.0018924984615296125
6996000000.0 -0.0020749650429934263 -0.0005143923917785287
7000000000.0 -3.380937050678767e-05 0.002182338386774063
7004000000.0 0.0021679445635527372 -0.0004293114470783621
7008000000.0 -0.001097384374588728 -0.001983811380341649
7012000000.0 -0.0017380572389811277 0.0014221983728930354
7016000000.0 0.0018002638826146722 0.001483403379097581
7020000000.0 0.001090037520043552 -0.0020974446088075638
7024000000.0 -0.00222679297439754 -0.0006222162628546357
7028000000.0 0.00014516110240947455 0.0024118374567478895
7032000000.0 0.002425735117867589 -0.0007294242386706173
7036000000.0 -0.0012464195024222136 -0.0022417816799134016
7040000000.0 -0.0017455080524086952 0.0016821649624034762
7044000000.0 0.002126435749232769 0.0013210299657657743
7048000000.0 0.0007891575805842876 -0.0022723691072314978
7052000000.0 -0.002469368977472186 -0.0003006673068739474
7056000000.0 0.00030801197863183916 0.0024787404108792543
7060000000.0 0.0022076566237956285 -0.0009118365705944598
7064000000.0 -0.0014180414145812392 -0.0020045218989253044
7068000000.0 -0.0015504169277846813 0.001838719006627798
7072000000.0 0.002204868011176586 0.0010148683795705438
7076000000.0 0.0005086320452392101 -0.0022762345615774393
7080000000.0 -0.0022675509098917246 4.258489570929669e-05
7084000000.0 0.0005447709118016064 0.00222196988761425
7088000000.0 0.0020095130894333124 -0.0010383445769548416
7092000000.0 -0.0013203182024881244 -0.0017420114018023014
7096000000.0 -0.0013880198821425438 0.0017208217177540064
7100000000.0 0.0019107481930404902 0.001021506730467081
7104000000.0 0.0006296099163591862 -0.0019886535592377186
7108000000.0 -0.002198169007897377 -0.00017112826753873378
7112000000.0 0.0003799791447818279 0.0021520955488085747
7116000000.0 0.0019826386123895645 -0.0008344781817868352
7120000000.0 -0.0012310094898566604 -0.0017569399205967784
7124000000.0 -0.001488858717493713 0.0015058205462992191
7128000000.0 0.0018629705300554633 0.0011671497486531734
7132000000.0 0.0006413833471015096 -0.002032945863902569
7136000000.0 -0.0023199105635285378 -0.0003408549237065017
7140000000.0 0.0001649031473789364 0.0022561002988368273
7144000000.0 0.002124070655554533 -0.0007766886847093701
7148000000.0 -0.0011884111445397139 -0.0019564630929380655
7152000000.0 -0.001603808137588203 0.0016362816095352173
7156000000.0 0.00196414184756577 0.0012345545692369342
7160000000.0 0.0007777225109748542 -0.0022659264504909515
7164000000.0 -0.0023981237318366766 -0.0003687358694151044
7168000000.0 0.00032087837462313473 0.0024071242660284042
7172000000.0 0.002305589383468032 -0.0008748316904529929
7176000000.0 -0.0014654089463874698 -0.0021539218723773956
7180000000.0 -0.0017036719946190715 0.001942977774888277
7184000000.0 0.0023532798513770103 0.0013479293556883931
7188000000.0 0.0005490343319252133 -0.002568545052781701
7192000000.0 -0.0026491950266063213 6.307313014985994e-05
7196000000.0 0.0006083112093620002 0.0025447779335081577
7200000000.0 0.002288287039846182 -0.001209729933179915
7204000000.0 -0.0015873803058639169 -0.0021237717010080814
7208000000.0 -0.0016072536818683147 0.0021019361447542906
7212000000.0 0.002331499243155122 0.0010881498456001282
7216000000.0 0.000547911855392158 -0.002518980298191309
7220000000.0 -0.00265612849034369 6.965971260797232e-05
7224000000.0 0.0008381148218177259 0.002359440317377448
7228000000.0 0.0020701836328953505 -0.0013319618301466107
7232000000.0 -0.0016987783601507545 -0.0018141480395570397
7236000000.0 -0.0014082171255722642 0.0019622226245701313
7240000000.0 0.002326724585145712 0.0008860341622494161
7244000000.0 0.00033569009974598885 -0.0024884575977921486
7248000000.0 -0.002453070832416415 0.0002179658622480929
7252000000.0 0.0007935875910334289 0.0022816378623247147
7256000000.0 0.002026472706347704 -0.0011014320189133286
7260000000.0 -0.0014209136134013534 -0.001728969276882708
7264000000.0 -0.0013393013505265117 0.0017251536482945085
7268000000.0 0.0019515376770868897 0.0010457572061568499
7272000000.0 0.0006099818274378777 -0.0022352258674800396
7276000000.0 -0.002332800067961216 -7.269093475770205e-05
7280000000.0 0.0004179156676400453 0.0023668291978538036
7284000000.0 0.0021757192444056273 -0.0008560213609598577
7288000000.0 -0.0012178346514701843 -0.0018888359190896153
7292000000.0 -0.0016601096140220761 0.0017217471031472087
7296000000.0 0.002052207011729479 0.0012820420088246465
7300000000.0 0.0006908081704750657 -0.00217416905798018
7304000000.0 -0.002388774184510112 -0.00012334941129665822
7308000000.0 0.0003621526120696217 0.002331540919840336
7312000000.0 0.002226363169029355 -0.0007827110821381211
7316000000.0 -0.001346313743852079 -0.002145051257684827
7320000000.0 -0.001806184882298112 0.0018275260226801038
7324000000.0 0.0021484880708158016 0.001464872737415135
7328000000.0 0.0008436315110884607 -0.002497776411473751
7332000000.0 -0.002615689067170024 -9.482973837293684e-05
7336000000.0 0.00045672935084439814 0.0024975184351205826
7340000000.0 0.002480891067534685 -0.000904665794223547
7344000000.0 -0.00144653778988868 -0.0021348297595977783
7348000000.0 -0.0019066031090915203 0.0018890111241489649
7352000000.0 0.002335070865228772 0.00137714936863631
7356000000.0 0.0007790750241838396 -0.002651315415278077
7360000000.0 -0.0026580423582345247 -5.746566239395179e-05
7364000000.0 0.0004661657731048763 0.0024918713606894016
7368000000.0 0.002324197441339493 -0.0009442829759791493
7372000000.0 -0.0013803160982206464 -0.0020809494890272617
7376000000.0 -0.0017704844940453768 0.0018013935768976808
7380000000.0 0.002128825057297945 0.001317826914601028
7384000000.0 0.0008523581782355905 -0.002415257040411234
7388000000.0 -0.002436096081510186 -0.00023817525652702898
7392000000.0 0.00027871193015016615 0.0024422535207122564
7396000000.0 0.002271901583299041 -0.0007873701397329569
7400000000.0 -0.0012708018766716123 -0.0021531982347369194
7404000000.0 -0.0018030332867056131 0.0017498373053967953
7408000000.0 0.00203828327357769 0.0014020230155438185
7412000000.0 0.0008577166590839624 -0.0022988077253103256
7416000000.0 -0.0025471642147749662 -0.00040251060272566974
7420000000.0 0.0001856128073995933 0.0024572801776230335
7424000000.0 0.0024397089146077633 -0.0006238605128601193
7428000000.0 -0.001244663493707776 -0.0023415558971464634
7432000000.0 -0.0018975307466462255 0.0017202652525156736
7436000000.0 0.0021039098501205444 0.001529988832771778
7440000000.0 0.0008855944615788758 -0.0024491718504577875
7444000000.0 -0.0024377871304750443 -0.0005653378320857882
7448000000.0 6.468371429946274e-05 0.002574667800217867
7452000000.0 0.00249604438431561 -0.0006211966392584145
7456000000.0 -0.0012989206006750464 -0.0024193490389734507
7460000000.0 -0.0020254903938621283 0.001774884876795113
7464000000.0 0.002339671365916729 0.0015062150778248906
7468000000.0 0.0008870404562912881 -0.002673434093594551
7472000000.0 -0.0026143942959606647 -0.0002815646294038743
7476000000.0 0.0003393317456357181 0.0026278053410351276
7480000000.0 0.0024274925235658884 -0.0008782453369349241
7484000000.0 -0.0013948396081104875 -0.002243914408609271
7488000000.0 -0.0019888284150511026 0.0019777517300099134
7492000000.0 0.0023882349487394094 0.0014366735704243183
7496000000.0 0.000771553604863584 -0.0026568984612822533
7500000000.0 -0.0027729615103453398 -0.00013503115042112768
7504000000.0 0.0005003205733373761 0.0026326398365199566
7508000000.0 0.002382849808782339 -0.0010208029998466372
7512000000.0 -0.001552480855025351 -0.0019709074404090643
7516000000.0 -0.0016154282493516803 0.001986701739951968
7520000000.0 0.0020932001061737537 0.0011264343047514558
7524000000.0 0.0005416536005213857 -0.0022748953197151423
7528000000.0 -0.0023205543402582407 -7.808229565853253e-05
7532000000.0 0.00033587231882847846 0.002241529058665037
7536000000.0 0.002083009807392955 -0.0008319023181684315
7540000000.0 -0.001301249722018838 -0.0018272632732987404
7544000000.0 -0.0014257777947932482 0.0016748294001445174
7548000000.0 0.0017684240592643619 0.0010038490872830153
7552000000.0 0.0006586668314412236 -0.0020226372871547937
7556000000.0 -0.0019539466593414545 -0.000241988935158588
7560000000.0 0.00023122852144297212 0.002076085889711976
7564000000.0 0.0019623683765530586 -0.0006612533470615745
7568000000.0 -0.0010721958242356777 -0.0017408202402293682
7572000000.0 -0.0014147069305181503 0.0013601414393633604
7576000000.0 0.0016192656476050615 0.001045080367475748
7580000000.0 0.0007026647217571735 -0.0017532581696286798
7584000000.0 -0.0019039042526856065 -0.00033788601285777986
7588000000.0 -1.9200811948394403e-05 0.001940564950928092
7592000000.0 0.0017992957727983594 -0.0005082582938484848
7596000000.0 -0.0008912739576771855 -0.001886421232484281
7600000000.0 -0.0016084114322438836 0.0012791082262992859
7604000000.0 0.001725579146295786 0.0012329810997471213
7608000000.0 0.0008903652778826654 -0.0020070793107151985
7612000000.0 -0.002204529009759426 -0.0002622756874188781
7616000000.0 0.00021511870727408677 0.002186656929552555
7620000000.0 0.0021788389421999454 -0.0008329169359058142
7624000000.0 -0.0013369638472795486 -0.0017904110718518496
7628000000.0 -0.0014245497295632958 0.001824358943849802
7632000000.0 0.0021431061904877424 0.0008834245963953435
7636000000.0 0.0002489032631274313 -0.002212784718722105
7640000000.0 -0.0021769350860267878 0.00035855028545483947
7644000000.0 0.0008970432681962848 0.00197740294970572
7648000000.0 0.001476986100897193 -0.0012486770283430815
7652000000.0 -0.0016076044412329793 -0.0010678318794816732
7656000000.0 -0.0006195157184265554 0.0016234685899689794
7660000000.0 0.001581933000124991 0.00030074716778472066
7664000000.0 -9.582534403307363e-05 -0.0015983848134055734
7668000000.0 -0.0013302341103553772 0.00037520486512221396
7672000000.0 0.0006312568439170718 0.001185021479614079
7676000000.0 0.0009763760608620942 -0.0008321460336446762
7680000000.0 -0.0010740227298811078 -0.0008459179080091417
7684000000.0 -0.0005365106044337153 0.0010446832748129964
7688000000.0 0.0011463584378361702 0.00029688727227039635
7692000000.0 0.00011987150355707854 -0.0011072242632508278
7696000000.0 -0.001062846160493791 0.00012671259173657745
7700000000.0 0.0002816039777826518 0.0010375486453995109
7704000000.0 0.0010200131218880415 -0.00044059762149117887
7708000000.0 -0.0006333391065709293 -0.0008949502371251583
7712000000.0 -0.0006603553774766624 0.0007898317999206483
7716000000.0 0.0008992589428089559 0.0005955492961220443
7720000000.0 0.00037386544863693416 -0.0010188481537625194
7724000000.0 -0.0011105630546808243 -0.00020709774980787188
7728000000.0 6.86022249283269e-05 0.0010923621011897922
7732000000.0 0.0011355222668498755 -0.00025500994524918497
7736000000.0 -0.0005050699692219496 -0.0010182865662500262
7740000000.0 -0.0008892377954907715 0.0007421802147291601
7744000000.0 0.0010713469237089157 0.0008261694456450641
7748000000.0 0.0005594851099886 -0.0013496981700882316
7752000000.0 -0.0014959024265408516 -0.00016507162945345044
7756000000.0 0.00021322975226212293 0.0015703621320426464
7760000000.0 0.00144300889223814 -0.0007185656577348709
7764000000.0 -0.0011143425945192575 -0.0011605159379541874
7768000000.0 -0.0007709519704803824 0.0014141773572191596
7772000000.0 0.0015436150133609772 0.00033233125577680767
7776000000.0 -0.00035751823452301323 -0.001498222118243575
7780000000.0 -0.0012731991009786725 0.0006161664496175945
7784000000.0 0.0008943522698245943 0.0008505343575961888
7788000000.0 0.0004671647329814732 -0.0009626669343560934
7792000000.0 -0.0009960710303857923 -0.0002758950286079198
7796000000.0 -0.00011931150947930291 0.000932996510528028
7800000000.0 0.0008474859059788287 -7.957291381899267e-05
7804000000.0 -0.0003301476826891303 -0.0007758808205835521
7808000000.0 -0.000640718499198556 0.00041997572407126427
7812000000.0 0.0003862221783492714 0.0004861624038312584
7816000000.0 0.00037293642526492476 -0.0005243670893833041
7820000000.0 -0.0005718140746466815 -0.00027136632706969976
7824000000.0 -0.000135886060888879 0.0005892884801141918
7828000000.0 0.000472766172606498 -1.2137468729633838e-05
7832000000.0 -9.028793283505365e-05 -0.0005799150094389915
7836000000.0 -0.0005807277048006654 0.00010648964962456375
7840000000.0 0.00023988820612430573 0.0005390465375967324
7844000000.0 0.00041071302257478237 -0.000253492733463645
7848000000.0 -0.0003619262424763292 -0.0004176981747150421
7852000000.0 -0.0002588580537121743 0.0004201858537271619
7856000000.0 0.0004866238741669804 0.0002921494306065142
7860000000.0 0.00014972696953918785 -0.0005597237613983452
7864000000.0 -0.0005089459009468555 -6.774907524231821e-05
7868000000.0 3.709278462338261e-05 0.0006649626884609461
7872000000.0 0.0006374568329192698 -0.0001692079531494528
7876000000.0 -0.00024956633569672704 -0.0006524220807477832
7880000000.0 -0.0005207874928601086 0.00048527689068578184
7884000000.0 0.0005579298594966531 0.00043399655260145664
7888000000.0 0.000279908039374277 -0.0008118667174130678
7892000000.0 -0.0009110868559218943 -0.00013630793546326458
7896000000.0 9.940024756360799e-05 0.0010014238068833947
7900000000.0 0.0009748633019626141 -0.0005073724314570427
7904000000.0 -0.0008249699603766203 -0.0006470495718531311
7908000000.0 -0.0004100765218026936 0.0009266918059438467
7912000000.0 0.0009223547531291842 7.600422691211861e-07
7916000000.0 -0.00022569327848032117 -0.0008945390582084656
7920000000.0 -0.0006354812067002058 0.0003504081687424332
7924000000.0 0.00047245773021131754 0.00045513769146054983
7928000000.0 0.000279617786873132 -0.0004417044692672789
7932000000.0 -0.000588806695304811 -0.0002458253293298185
7936000000.0 -0.00014292384730651975 0.0004863463982474059
7940000000.0 0.0004447363317012787 4.132738467887975e-05
7944000000.0 -0.0001564637932460755 -0.00045813946053385735
7948000000.0 -0.0004371570248622447 0.00019789052021224052
7952000000.0 0.0001140577660407871 0.00039078391273505986
7956000000.0 0.00022359966533258557 -0.00019053183495998383
7960000000.0 -0.00024158468295354396 -0.00026203267043456435
7964000000.0 -0.0002248921518912539 0.00027137857978232205
7968000000.0 0.00023239216534420848 0.00017359982302878052
7972000000.0 5.277827585814521e-05 -0.0003656334592960775
7976000000.0 -0.00034812395460903645 -0.00013765733456239104
7980000000.0 3.8640922866761684e-05 0.00033165395143441856
7984000000.0 0.00037783943116664886 -5.147840056451969e-05
7988000000.0 -0.00013085792306810617 -0.0003484771877992898
7992000000.0 -0.000405545491958037 0.00022040627663955092
7996000000.0 0.00019247808086220175 0.0003465171030256897
8000000000.0 0.00035733511322177947 -0.00031877870787866414
