! Created with skrf 1.10.0 (http://scikit-rf.org).
# Hz S RI R 50.0 
!freq ReS11 ImS11
!
4000000000.0 -0.0007479072664864361 -0.016972772777080536
4004000000.0 -0.016376066952943802 0.0034376420080661774
4008000000.0 0.005342245567589998 0.015273723751306534
4012000000.0 0.014050317928195 -0.007073136046528816
4016000000.0 -0.008593682199716568 -0.012906478717923164
4020000000.0 -0.01127549633383751 0.010072361677885056
4024000000.0 0.011368227191269398 0.009828159585595131
4028000000.0 0.007948322221636772 -0.012263736687600613
4032000000.0 -0.013293028809130192 -0.006188179366290569
4036000000.0 -0.004458651877939701 0.013454568572342396
4040000000.0 0.01363974716514349 0.002562713110819459
4044000000.0 0.000928337627556175 -0.013640140183269978
4048000000.0 -0.013842415064573288 0.000510196783579886
4052000000.0 0.00226601236499846 0.013551984913647175
4056000000.0 0.013171366415917873 -0.0040421090088784695
4060000000.0 -0.005459201522171497 -0.012683319859206676
4064000000.0 -0.011985472403466702 0.0068613640032708645
4068000000.0 0.008424940519034863 0.011284098029136658
4072000000.0 0.010197107680141926 -0.009669787250459194
4076000000.0 -0.011278582736849785 -0.009139583446085453
4080000000.0 -0.007561058737337589 0.012255864217877388
4084000000.0 0.013485703617334366 0.006157335825264454
4088000000.0 0.004524687770754099 -0.014601132832467556
4092000000.0 -0.015376917086541653 -0.0024027861654758453
4096000000.0 -0.0003398525295779109 0.0160627793520689
4100000000.0 0.016270190477371216 -0.0021351054310798645
4104000000.0 -0.004634738899767399 -0.015927525237202644
4108000000.0 -0.01518629677593708 0.00713106244802475
4112000000.0 0.009524719789624214 0.014295479282736778
4116000000.0 0.012639387510716915 -0.011925107799470425
4120000000.0 -0.01385232899338007 -0.010557940229773521
4124000000.0 -0.008116239681839943 0.015444154851138592
4128000000.0 0.016516920179128647 0.005548427347093821
4132000000.0 0.0027655507437884808 -0.016907088458538055
4136000000.0 -0.016900110989809036 -0.00010814538109116256
4140000000.0 0.002587732160463929 0.016470041126012802
4144000000.0 0.015749219805002213 -0.0049127815291285515
4148000000.0 -0.006792912259697914 -0.014421380124986172
4152000000.0 -0.013049975968897343 0.0085361422970891
4156000000.0 0.010007102973759174 0.011786065995693207
4160000000.0 0.010173008777201176 -0.011424675583839417
4164000000.0 -0.012323880568146706 -0.008490347303450108
4168000000.0 -0.006647045724093914 0.013348584994673729
4172000000.0 0.013861378654837608 0.004852641839534044
4176000000.0 0.0029504476115107536 -0.014043421484529972
4180000000.0 -0.013981915079057217 -0.001279386691749096
4184000000.0 0.0005125177558511496 0.013887294568121433
4188000000.0 0.013611583039164543 -0.0020514007192105055
4192000000.0 -0.003744750050827861 -0.01329458225518465
4196000000.0 -0.012750495225191116 0.005384283605962992
4200000000.0 0.006863543763756752 0.012479817494750023
4204000000.0 0.011409686878323555 -0.008518348447978497
4208000000.0 -0.010065123438835144 -0.010530386120080948
4212000000.0 -0.009070132859051228 0.011600983329117298
4216000000.0 0.012693606317043304 0.007428627461194992
4220000000.0 0.005785004701465368 -0.013804526068270206
4224000000.0 -0.014780079945921898 -0.0041808513924479485
4228000000.0 -0.0021488736383616924 0.01556283701211214
4232000000.0 0.016433430835604668 4.428127795108594e-05
4236000000.0 -0.0025778147391974926 -0.016807513311505318
4240000000.0 -0.01626015082001686 0.005133762955665588
4244000000.0 0.007909949868917465 0.015566776506602764
4248000000.0 0.014119725674390793 -0.010310482233762741
4252000000.0 -0.012770538218319416 -0.012438283301889896
4256000000.0 -0.010377340018749237 0.01457296684384346
4260000000.0 0.016234366223216057 0.007877890951931477
4264000000.0 0.00486709363758564 -0.01694830134510994
4268000000.0 -0.017422905191779137 -0.0021113536786288023
4272000000.0 0.0006973347626626492 0.017567390576004982
4276000000.0 0.017219562083482742 -0.0032155539374798536
4280000000.0 -0.005832259077578783 -0.016262803226709366
4284000000.0 -0.01462620496749878 0.008202589116990566
4288000000.0 0.009950079955160618 0.012866347096860409
4292000000.0 0.011032769456505775 -0.01171067263931036
4296000000.0 -0.012813854031264782 -0.008903753012418747
4300000000.0 -0.006907887291163206 0.01342872716486454
4304000000.0 0.013736138120293617 0.004711179528385401
4308000000.0 0.0027630615513771772 -0.013841741718351841
4312000000.0 -0.014056341722607613 -0.0010669420007616282
4316000000.0 0.0004583357076626271 0.013770096935331821
4320000000.0 0.01351458765566349 -0.002456560032442212
4324000000.0 -0.003781925654038787 -0.01293494738638401
4328000000.0 -0.012088537216186523 0.0052288249135017395
4332000000.0 0.006631173193454742 0.011303520761430264
4336000000.0 0.010163722559809685 -0.007767393719404936
4340000000.0 -0.008915177546441555 -0.00964449904859066
4344000000.0 -0.00869337935000658 0.010060739703476429
4348000000.0 0.011313693597912788 0.007320094387978315
4352000000.0 0.005686793942004442 -0.012163680978119373
4356000000.0 -0.012643631547689438 -0.004023300483822823
4360000000.0 -0.0025681229308247566 0.013220629654824734
4364000000.0 0.0137218302115798 0.0011621826561167836
4368000000.0 -0.0006864286842755973 -0.014447575435042381
4372000000.0 -0.014375406317412853 0.002773995278403163
4376000000.0 0.005085283890366554 0.013970444910228252
4380000000.0 0.013251344673335552 -0.0070371064357459545
4384000000.0 -0.009124090895056725 -0.012380779720842838
4388000000.0 -0.010993937961757183 0.01121360994875431
4392000000.0 0.012568000704050064 0.009434951469302177
4396000000.0 0.007640491705387831 -0.01473903190344572
4400000000.0 -0.015917891636490822 -0.004973577335476875
4404000000.0 -0.002352978102862835 0.016839835792779922
4408000000.0 0.017075031995773315 -0.0005084144650027156
4412000000.0 -0.003398019587621093 -0.01636117324233055
4416000000.0 -0.015495800413191319 0.006247407291084528
4420000000.0 0.0083929393440485 0.01404888927936554
4424000000.0 0.012152409180998802 -0.009902494959533215
4428000000.0 -0.01146597322076559 -0.010016256012022495
4432000000.0 -0.007964353077113628 0.012442868202924728
4436000000.0 0.012864232994616032 0.005611732602119446
4440000000.0 0.003888902021571994 -0.013306653127074242
4444000000.0 -0.012914206832647324 -0.0019499295158311725
4448000000.0 -0.00031071421108208597 0.013131413608789444
4452000000.0 0.012540454976260662 -0.0013782657915726304
4456000000.0 -0.002857399173080921 -0.011841018684208393
4460000000.0 -0.01150509249418974 0.004548628814518452
4464000000.0 0.005760804750025272 0.01056881807744503
4468000000.0 0.009568268433213234 -0.00678196270018816
4472000000.0 -0.00782102346420288 -0.0085537014529109
4476000000.0 -0.0073432535864412785 0.00823700800538063
4480000000.0 0.009211882017552853 0.006457797717303038
4484000000.0 0.005408980883657932 -0.009813861921429634
4488000000.0 -0.010588619858026505 -0.0043007624335587025
4492000000.0 -0.0031551665160804987 0.011030931025743484
4496000000.0 0.011297549121081829 0.002139163902029395
4500000000.0 0.0005548320477828383 -0.011377358809113503
4504000000.0 -0.011616543866693974 0.0008935531368479133
4508000000.0 0.0024512275122106075 0.011612875387072563
4512000000.0 0.011628443375229836 -0.0037732210475951433
4516000000.0 -0.005493470933288336 -0.011516249738633633
4520000000.0 -0.010662729851901531 0.0072656371630728245
4524000000.0 0.009124897420406342 0.010244417935609818
4528000000.0 0.00868034828454256 -0.01071815937757492
4532000000.0 -0.012456744909286499 -0.007017574273049831
4536000000.0 -0.005177226848900318 0.013301880098879337
4540000000.0 0.014331290498375893 0.0030413081403821707
4544000000.0 0.0009258509962819517 -0.014734363183379173
4548000000.0 -0.014838626608252525 0.0015197757165879011
4552000000.0 0.0038099486846476793 0.014224929735064507
4556000000.0 0.013538883067667484 -0.005916543770581484
4560000000.0 -0.008451773785054684 -0.012445798143744469
4564000000.0 -0.010718070901930332 0.010228545404970646
4568000000.0 0.011677662841975689 0.008739296346902847
4572000000.0 0.00650410819798708 -0.012722790241241455
4576000000.0 -0.013116356916725636 -0.004459934774786234
4580000000.0 -0.0022784764878451824 0.013273661956191063
4584000000.0 0.012964976951479912 0.0004087678680662066
4588000000.0 -0.0013301681028679013 -0.01260486338287592
4592000000.0 -0.012047957628965378 0.002845976036041975
4596000000.0 0.004431058187037706 0.011333603411912918
4600000000.0 0.010454557836055756 -0.00580265186727047
4604000000.0 -0.006808808073401451 -0.009266180917620659
4608000000.0 -0.008240231312811375 0.007855238392949104
4612000000.0 0.008553571067750454 0.007010916247963905
4616000000.0 0.005990130826830864 -0.009180315770208836
4620000000.0 -0.009803942404687405 -0.004617316648364067
4624000000.0 -0.003575798822566867 0.010030278004705906
4628000000.0 0.010428573936223984 0.002230205573141575
4632000000.0 0.0009051986853592098 -0.010407914407551289
4636000000.0 -0.010640552267432213 0.0001795348071027547
4640000000.0 0.0013883562060073018 0.010445636697113514
4644000000.0 0.010446391068398952 -0.002512982813641429
4648000000.0 -0.0036839067470282316 -0.01027817651629448
4652000000.0 -0.009805019944906235 0.0049830093048512936
4656000000.0 0.006184028927236795 0.009247052483260632
4660000000.0 0.008445817977190018 -0.007347906939685345
4664000000.0 -0.008436483331024647 -0.007935591042041779
4668000000.0 -0.006953112315386534 0.009900407865643501
4672000000.0 0.010996057651937008 0.005621438380330801
4676000000.0 0.003914223983883858 -0.012146279215812683
4680000000.0 -0.012803299352526665 -0.002031999174505472
4684000000.0 -0.00020215204858686775 0.013191798701882362
4688000000.0 0.01331601943820715 -0.0017837152117863297
4692000000.0 -0.003955466207116842 -0.012951229698956013
4696000000.0 -0.01255612913519144 0.006074079312384129
4700000000.0 0.008038489148020744 0.011612607166171074
4704000000.0 0.010000426322221756 -0.009974849410355091
4708000000.0 -0.011585701256990433 -0.008223462849855423
4712000000.0 -0.006005254574120045 0.012663675472140312
4716000000.0 0.013218077830970287 0.003871077671647072
4720000000.0 0.0017746337689459324 -0.013333574868738651
4724000000.0 -0.01326335035264492 0.00011016797361662611
4728000000.0 0.002286246046423912 0.012825761921703815
4732000000.0 0.011986592784523964 -0.003984840586781502
4736000000.0 -0.0055612786673009396 -0.010792055167257786
4740000000.0 -0.009774325415492058 0.006745465565472841
4744000000.0 0.007849480025470257 0.008250197395682335
4748000000.0 0.0070590791292488575 -0.008580237627029419
4752000000.0 -0.00917750783264637 -0.005978250410407782
4756000000.0 -0.004762336146086454 0.009762332774698734
4760000000.0 0.010297576896846294 0.0038194756489247084
4764000000.0 0.0021973701659590006 -0.010500255040824413
4768000000.0 -0.010642297565937042 -0.0009389090701006353
4772000000.0 0.0004489771381486207 0.010566093027591705
4776000000.0 0.010316425934433937 -0.0017097950913012028
4780000000.0 -0.0029992000199854374 -0.010071776807308197
4784000000.0 -0.00985686294734478 0.004293359350413084
4788000000.0 0.005611302796751261 0.00919262319803238
4792000000.0 0.008358743973076344 -0.006712557282298803
4796000000.0 -0.007743889931589365 -0.007653704844415188
4800000000.0 -0.006659417878836393 0.008711634203791618
4804000000.0 0.009575989097356796 0.005737823434174061
4808000000.0 0.004599540960043669 -0.01053501758724451
4812000000.0 -0.011590388603508472 -0.0030098985880613327
4816000000.0 -0.0014732704730704427 0.011988340876996517
4820000000.0 0.012225354090332985 -0.00040634095785208046
4824000000.0 -0.0024662225041538477 -0.012308734469115734
4828000000.0 -0.0119934668764472 0.0043502552434802055
4832000000.0 0.006150322034955025 0.011240420863032341
4836000000.0 0.010388202965259552 -0.00801355205476284
4840000000.0 -0.009768611751496792 -0.009003832936286926
4844000000.0 -0.007288828957825899 0.010995285585522652
4848000000.0 0.011869173496961594 0.0053625875152647495
4852000000.0 0.0032692092936486006 -0.012541679665446281
4856000000.0 -0.01265242975205183 -0.0011996151879429817
4860000000.0 0.00044715742114931345 0.012494757771492004
4864000000.0 0.012000810354948044 -0.0023922487162053585
4868000000.0 -0.004053366370499134 -0.01163556519895792
4872000000.0 -0.01071068737655878 0.005549252964556217
4876000000.0 0.007142011076211929 0.009516860358417034
4880000000.0 0.00834400299936533 -0.008292164653539658
4884000000.0 -0.00899279210716486 -0.00689314492046833
4888000000.0 -0.005496595054864883 0.00966865848749876
4892000000.0 0.010129944421350956 0.004147776868194342
4896000000.0 0.002917611738666892 -0.01030685193836689
4900000000.0 -0.010555860586464405 -0.0013748662313446403
4904000000.0 4.8380302359873895e-06 0.010689040645956993
4908000000.0 0.010320470668375492 -0.0013532883021980524
4912000000.0 -0.0025935466401278973 -0.009929239749908447
4916000000.0 -0.009598290547728539 0.00373717094771564
4920000000.0 0.004700768273323774 0.009174252860248089
4924000000.0 0.008604522794485092 -0.005806699860841036
4928000000.0 -0.007069142069667578 -0.007712678983807564
4932000000.0 -0.006896244827657938 0.00804414227604866
4936000000.0 0.008917862549424171 0.00571791036054492
4940000000.0 0.004548543598502874 -0.009609248489141464
4944000000.0 -0.010217580012977123 -0.0033835379872471094
4948000000.0 -0.0019653744529932737 0.010720432735979557
4952000000.0 0.011199591681361198 0.0005567803746089339
4956000000.0 -0.0010959727223962545 -0.01134535949677229
4960000000.0 -0.01133174728602171 0.0029420300852507353
4964000000.0 0.004581913817673922 0.010877403430640697
4968000000.0 0.010243591852486134 -0.006239267531782389
4972000000.0 -0.0077352640219032764 -0.009253515861928463
4976000000.0 -0.007948417216539383 0.009295486845076084
4980000000.0 0.010547309182584286 0.006594777572900057
4984000000.0 0.004594767466187477 -0.011620776727795601
4988000000.0 -0.012044151313602924 -0.002823762595653534
4992000000.0 -0.0005995120154693723 0.012213354930281639
4996000000.0 0.012053858488798141 -0.001441503525711596
5000000000.0 -0.0031739366240799427 -0.011488225311040878
5004000000.0 -0.010694132186472416 0.004943448584526777
5008000000.0 0.0063832467421889305 0.009601818397641182
5012000000.0 0.00841988530009985 -0.0074940151534974575
5016000000.0 -0.008547715842723846 -0.006995691917836666
5020000000.0 -0.005599430296570063 0.009389189071953297
5024000000.0 0.009665367193520069 0.003963023889809847
5028000000.0 0.0024844612926244736 -0.010046792216598988
5032000000.0 -0.01002012100070715 -0.001110611017793417
5036000000.0 0.00032920960802584887 0.009762191213667393
5040000000.0 0.009328121319413185 -0.0014474201016128063
5044000000.0 -0.002659205812960863 -0.008747557178139687
5048000000.0 -0.008284353651106358 0.0034613932948559523
5052000000.0 0.004308803007006645 0.007776971440762281
5056000000.0 0.0071960147470235825 -0.005171028431504965
5060000000.0 -0.00591548066586256 -0.0063132792711257935
5064000000.0 -0.005638769827783108 0.006688130088150501
5068000000.0 0.007242561783641577 0.004784070886671543
5072000000.0 0.003824134822934866 -0.007525742519646883
5076000000.0 -0.00823509506881237 -0.002970366505905986
5080000000.0 -0.0019046190427616239 0.008660961873829365
5084000000.0 0.008726377971470356 0.0007626884034834802
5088000000.0 -0.0002454013447277248 -0.009154967032372952
5092000000.0 -0.008977820165455341 0.0014265503268688917
5096000000.0 0.0027166123036295176 0.008727236650884151
5100000000.0 0.008639061823487282 -0.004157539922744036
5104000000.0 -0.005240158177912235 -0.008069098927080631
5108000000.0 -0.007209300994873047 0.006456552539020777
5112000000.0 0.007668691221624613 0.0063230013474822044
5116000000.0 0.005373316816985607 -0.008483483456075191
5120000000.0 -0.009342350997030735 -0.004284216556698084
5124000000.0 -0.002546895993873477 0.009992776438593864
5128000000.0 0.01003301702439785 0.0008452417678199708
5132000000.0 -0.0005798412021249533 -0.010225112549960613
5136000000.0 -0.010179351083934307 0.002160041593015194
5140000000.0 0.0035858398769050837 0.009567683562636375
5144000000.0 0.008993827737867832 -0.005055603105574846
5148000000.0 -0.006507518235594034 -0.007835853844881058
5152000000.0 -0.006577699910849333 0.00740391667932272
5156000000.0 0.008208772167563438 0.005507083144038916
5160000000.0 0.004243850242346525 -0.00850795116275549
5164000000.0 -0.009084098972380161 -0.0029858960770070553
5168000000.0 -0.001560127129778266 0.009048757143318653
5172000000.0 0.00924895890057087 0.00024533725809305906
5176000000.0 -0.000829627038910985 -0.009013510309159756
5180000000.0 -0.008325777016580105 0.0023778630420565605
5184000000.0 0.0031467352528125048 0.007971609011292458
5188000000.0 0.007475634105503559 -0.004046319983899593
5192000000.0 -0.004769592545926571 -0.0067555163986980915
5196000000.0 -0.006057200487703085 0.005667680408805609
5200000000.0 0.006421896629035473 0.005329432897269726
5204000000.0 0.0043563274666666985 -0.007005876395851374
5208000000.0 -0.0074328468181192875 -0.0033258625771850348
5212000000.0 -0.002413069596514106 0.007696447428315878
5216000000.0 0.007909061387181282 0.001348051126115024
5220000000.0 0.0004411204135976732 -0.007984715513885021
5224000000.0 -0.008035346865653992 0.0006348229362629354
5228000000.0 0.0014571973588317633 0.007933803834021091
5232000000.0 0.007598144933581352 -0.002372514456510544
5236000000.0 -0.0032068078871816397 -0.007394352927803993
5240000000.0 -0.007006932981312275 0.004297342617064714
5244000000.0 0.005293297581374645 0.006693691946566105
5248000000.0 0.006009798031300306 -0.006477195769548416
5252000000.0 -0.00714648375287652 -0.005061272531747818
5256000000.0 -0.003958662506192923 0.008065062575042248
5260000000.0 0.008478163741528988 0.0028643033001571894
5264000000.0 0.0015265285037457943 -0.008906516246497631
5268000000.0 -0.009332857094705105 -0.0002789540449157357
5272000000.0 0.0011076688533648849 0.009296555072069168
5276000000.0 0.008951110765337944 -0.002652650000527501
5280000000.0 -0.004065671470016241 -0.008535027503967285
5284000000.0 -0.007947276346385479 0.005230780225247145
5288000000.0 0.006408554036170244 0.006987630855292082
5292000000.0 0.005777430254966021 -0.007395369466394186
5296000000.0 -0.008116685785353184 -0.004646086599677801
5300000000.0 -0.003160803345963359 0.008650376461446285
5304000000.0 0.008966950699687004 0.0018281465163454413
5308000000.0 0.0006134570576250553 -0.008829901926219463
5312000000.0 -0.008849570527672768 0.0006835561362095177
5316000000.0 0.0018266532570123672 0.008604442700743675
5320000000.0 0.008081424981355667 -0.0030226095113903284
5324000000.0 -0.0041098990477621555 -0.007584432139992714
5328000000.0 -0.006688922178000212 0.004894712939858437
5332000000.0 0.005712664220482111 0.005996911786496639
5336000000.0 0.004972721450030804 -0.006366421468555927
5340000000.0 -0.006804677192121744 -0.004101917613297701
5344000000.0 -0.0030277324840426445 0.007187996059656143
5348000000.0 0.0074014198035001755 0.00210433267056942
5352000000.0 0.0011901950929313898 -0.0076346141286194324
5356000000.0 -0.007689452730119228 -0.00028175991610623896
5360000000.0 0.0008389264112338424 0.007633133791387081
5364000000.0 0.007561072241514921 -0.0019797065760940313
5368000000.0 -0.002801783848553896 -0.007188628427684307
5372000000.0 -0.006811965256929398 0.0036434070207178593
5376000000.0 0.00447562150657177 0.006262903567403555
5380000000.0 0.005649252329021692 -0.005375879351049662
5384000000.0 -0.0060689751990139484 -0.004911011550575495
5388000000.0 -0.004121639300137758 0.006682134233415127
5392000000.0 0.007174508646130562 0.003263261169195175
5396000000.0 0.002350060036405921 -0.0076423934660851955
5400000000.0 -0.008042720146477222 -0.0013277071993798018
5404000000.0 -0.00010732181544881314 0.008234642446041107
5408000000.0 0.008328703232109547 -0.0011389200808480382
5412000000.0 -0.0023448208812624216 -0.008106605149805546
5416000000.0 -0.007815822958946228 0.003597715636715293
5420000000.0 0.004761087242513895 0.00722968764603138
5424000000.0 0.006431897636502981 -0.005923859775066376
5428000000.0 -0.006867044139653444 -0.0054742079228162766
5432000000.0 -0.0042667207308113575 0.007599502801895142
5436000000.0 0.008181081153452396 0.0028980004135519266
5440000000.0 0.001629971549846232 -0.008424658328294754
5444000000.0 -0.008478878997266293 -0.00037675080238841474
5448000000.0 0.0009275783086195588 0.008451458066701889
5452000000.0 0.00814146175980568 -0.002237857086583972
5456000000.0 -0.003253430128097534 -0.007497081998735666
5460000000.0 -0.006808848585933447 0.004397760611027479
5464000000.0 0.0051085310988128185 0.005910276435315609
5468000000.0 0.005177623592317104 -0.005902242846786976
5472000000.0 -0.00645577535033226 -0.004221727140247822
5476000000.0 -0.003179489402100444 0.006692022085189819
5480000000.0 0.007150413002818823 0.002164277248084545
5484000000.0 0.001159803126938641 -0.007211541756987572
5488000000.0 -0.007072543725371361 -0.00019659154349938035
5492000000.0 0.0007271416252478957 0.006922977976500988
5496000000.0 0.006707194726914167 -0.0014437626814469695
5500000000.0 -0.00227503664791584 -0.006397852674126625
5504000000.0 -0.00607062503695488 0.0030116902198642492
5508000000.0 0.0037602433003485203 0.005457351449877024
5512000000.0 0.00506815779954195 -0.004335151053965092
5516000000.0 -0.004918337799608707 -0.004314228426665068
5520000000.0 -0.0036829716991633177 0.005295301787555218
5524000000.0 0.0057331835851073265 0.0030169817619025707
5528000000.0 0.002320876345038414 -0.006096195429563522
5532000000.0 -0.006418872624635696 -0.0015897199045866728
5536000000.0 -0.0006841875147074461 0.006627350114285946
5540000000.0 0.00664880033582449 -0.00023599342966917902
5544000000.0 -0.0011576703982427716 -0.006516966503113508
5548000000.0 -0.00640126271173358 0.0017468560254201293
5552000000.0 0.0025204848498106003 0.006124133709818125
5556000000.0 0.00585757615044713 -0.003313746303319931
5560000000.0 -0.0041761985048651695 -0.005532401613891125
5564000000.0 -0.004962797276675701 0.0048765502870082855
5568000000.0 0.005715656094253063 0.004080793354660273
5572000000.0 0.0032210161443799734 -0.0062663862481713295
5576000000.0 -0.006773879751563072 -0.0025625203270465136
5580000000.0 -0.0015848177717998624 0.007062608376145363
5584000000.0 0.007369641214609146 0.0005527017056010664
5588000000.0 -0.0007697985856793821 -0.007526363246142864
5592000000.0 -0.007436276879161596 0.0021609938703477383
5596000000.0 0.003028198843821883 0.006769196130335331
5600000000.0 0.0059747821651399136 -0.004127504304051399
5604000000.0 -0.004756517242640257 -0.005441176705062389
5608000000.0 -0.004701039753854275 0.005297424737364054
5612000000.0 0.005982672329992056 0.003881709650158882
5616000000.0 0.003058949252590537 -0.006384176202118397
5620000000.0 -0.0067892600782215595 -0.0019539131317287683
5624000000.0 -0.0009816590463742614 0.006791633553802967
5628000000.0 0.006721585523337126 -2.3755010261083953e-05
5632000000.0 -0.0008091173367574811 -0.006434849929064512
5636000000.0 -0.006385458633303642 0.0013663384597748518
5640000000.0 0.002329191192984581 0.006177110597491264
5644000000.0 0.00573537265881896 -0.0030467435717582703
5648000000.0 -0.003858664073050022 -0.005309493280947208
5652000000.0 -0.004614248871803284 0.00447935750707984
5656000000.0 0.005007728468626738 0.004051071126013994
5660000000.0 0.003405470633879304 -0.005369453225284815
5664000000.0 -0.005827497225254774 -0.0027171361725777388
5668000000.0 -0.0021592078264802694 0.00612212996929884
5672000000.0 0.0065044816583395 0.0012660371139645576
5676000000.0 0.00031123324879445136 -0.006624915637075901
5680000000.0 -0.006703647319227457 0.0006011258228681982
5684000000.0 0.0015364009886980057 0.006498480681329966
5688000000.0 0.006236307322978973 -0.0022913573775440454
5692000000.0 -0.0030708368867635727 -0.005940966308116913
5696000000.0 -0.005634710192680359 0.004000543616712093
5700000000.0 0.004952983930706978 0.005015550181269646
5704000000.0 0.004397827200591564 -0.005606404040008783
5708000000.0 -0.0063562714494764805 -0.0035293446853756905
5712000000.0 -0.0024405864533036947 0.006579425651580095
5716000000.0 0.00703702075406909 0.001694634323939681
5720000000.0 0.0007628281600773335 -0.007258208468556404
5724000000.0 -0.007538269739598036 0.0002805906697176397
5728000000.0 0.001418111496604979 0.007622009143233299
5732000000.0 0.007283149287104607 -0.002732288558036089
5736000000.0 -0.003935914020985365 -0.006585190072655678
5740000000.0 -0.005831024143844843 0.004890881944447756
5744000000.0 0.005624833982437849 0.004908381029963493
5748000000.0 0.004228068981319666 -0.006298787426203489
5752000000.0 -0.00674298033118248 -0.003358083311468363
5756000000.0 -0.0021215134765952826 0.007188654039055109
5760000000.0 0.007357903756201267 0.0009250359726138413
5764000000.0 -0.00033995171543210745 -0.007337823510169983
5768000000.0 -0.007029493805021048 0.0012695790501311421
5772000000.0 0.0021651361603289843 0.006580225192010403
5776000000.0 0.006314950529485941 -0.002898406470194459
5780000000.0 -0.003825779538601637 -0.005688944365829229
5784000000.0 -0.004932980518788099 0.004366009030491114
5788000000.0 0.005034499801695347 0.004182617180049419
5792000000.0 0.0035377610474824905 -0.0055204457603394985
5796000000.0 -0.0056683458387851715 -0.0028429485391825438
5800000000.0 -0.0023019846994429827 0.00598884467035532
5804000000.0 0.005934631451964378 0.0013072683941572905
5808000000.0 0.00034650045563466847 -0.006382687482982874
5812000000.0 -0.006323867943137884 0.00042557870619930327
5816000000.0 0.0009984427597373724 0.006253584288060665
5820000000.0 0.005924854427576065 -0.0017438472714275122
5824000000.0 -0.0024868862237781286 -0.005824835505336523
5828000000.0 -0.0053241802379488945 0.0033925059251487255
5832000000.0 0.004226703196763992 0.005045370198786259
5836000000.0 0.0044357795268297195 -0.004778452217578888
5840000000.0 -0.005380268674343824 -0.00378476083278656
5844000000.0 -0.002869037678465247 0.005825672298669815
5848000000.0 0.0061434912495315075 0.0018986758077517152
5852000000.0 0.0011736996239051223 -0.006603134796023369
5856000000.0 -0.0066238767467439175 -0.00032060188823379576
5860000000.0 0.00038606487214565277 0.00688422005623579
5864000000.0 0.006843020673841238 -0.001659061061218381
5868000000.0 -0.002578972140327096 -0.006522922310978174
5872000000.0 -0.00614439882338047 0.003627222031354904
5876000000.0 0.004602816421538591 0.005470446310937405
5880000000.0 0.004627757240086794 -0.005356272216886282
5884000000.0 -0.006100237835198641 -0.004022447858005762
5888000000.0 -0.0028369915671646595 0.006536796223372221
5892000000.0 0.006782786920666695 0.001655004103668034
5896000000.0 0.0007799066370353103 -0.006992644630372524
5900000000.0 -0.006978633347898722 0.00040041838656179607
5904000000.0 0.0015272458549588919 0.006815264001488686
5908000000.0 0.006158031057566404 -0.002388046123087406
5912000000.0 -0.0033234767615795135 -0.005840578116476536
5916000000.0 -0.00503210024908185 0.004147781059145927
5920000000.0 0.004635737277567387 0.00431130500510335
5924000000.0 0.003526992630213499 -0.004872029647231102
5928000000.0 -0.0051142312586307526 -0.0027969295624643564
5932000000.0 -0.0021228124387562275 0.005495784338563681
5936000000.0 0.005701940972357988 0.001356524066068232
5940000000.0 0.0007000213372521102 -0.005666515789926052
5944000000.0 -0.005671760067343712 2.0581073840730824e-05
5948000000.0 0.000801802787464112 0.005335729103535414
5952000000.0 0.0053379167802631855 -0.0012866778997704387
5956000000.0 -0.0017578196711838245 -0.005107060540467501
5960000000.0 -0.005029572639614344 0.002304098103195429
5964000000.0 0.0029070000164210796 0.004650732036679983
5968000000.0 0.004524450749158859 -0.003483004402369261
5972000000.0 -0.004090628586709499 -0.0039346651174128056
5976000000.0 -0.0034471573308110237 0.004570416174829006
5980000000.0 0.005116378888487816 0.00276729604229331
5984000000.0 0.00197269837372005 -0.005544837098568678
5988000000.0 -0.0059411609545350075 -0.0013473116559907794
5992000000.0 -0.0005442029796540737 0.0060127428732812405
5996000000.0 0.006268030498176813 -0.0003233450115658343
6000000000.0 -0.001120094209909439 -0.006163207348436117
6004000000.0 -0.0060592652298510075 0.002035207115113735
6008000000.0 0.002895108889788389 0.005682038143277168
6012000000.0 0.005331137683242559 -0.003778175450861454
6016000000.0 -0.004574556834995747 -0.0046917409636080265
6020000000.0 -0.003966886084526777 0.005363835487514734
6024000000.0 0.005917035508900881 0.003152445424348116
6028000000.0 0.002116076648235321 -0.006409178487956524
6032000000.0 -0.006748568266630173 -0.0012224018573760986
6036000000.0 -0.0001273749949177727 0.006666852626949549
6040000000.0 0.0066643888130784035 -0.0007839605677872896
6044000000.0 -0.0018160694744437933 -0.00637381337583065
6048000000.0 -0.006061543244868517 0.0028305703308433294
6052000000.0 0.0036422170232981443 0.005395615939050913
6056000000.0 0.004814328625798225 -0.004423163365572691
6060000000.0 -0.004920401610434055 -0.004031358286738396
6064000000.0 -0.0032638381235301495 0.005287069361656904
6068000000.0 0.005631547421216965 0.002438709605485201
6072000000.0 0.00165562576148659 -0.0058601670898497105
6076000000.0 -0.005989354569464922 -0.0009024979663081467
6080000000.0 0.0001248312764801085 0.005900242831557989
6084000000.0 0.005669865757226944 -0.0009277350036427379
6088000000.0 -0.0016680629923939705 -0.005638889502733946
6092000000.0 -0.005122301634401083 0.002258993685245514
6096000000.0 0.002892490476369858 0.0047024209052324295
6100000000.0 0.004269491881132126 -0.0035704306792467833
6104000000.0 -0.003938423004001379 -0.003786104265600443
6108000000.0 -0.003441004315391183 0.004508779849857092
6112000000.0 0.004671899136155844 0.00287095014937222
6116000000.0 0.0021781637333333492 -0.0050048562698066235
6120000000.0 -0.005400034133344889 -0.0014808359555900097
6124000000.0 -0.0006992866401560605 0.00567019684240222
6128000000.0 0.005862639285624027 9.168405085802078e-05
6132000000.0 -0.0008495321380905807 -0.005817618686705828
6136000000.0 -0.0058247740380465984 0.0014569604536518455
6140000000.0 0.002319109393283725 0.005663084331899881
6144000000.0 0.005097664427012205 -0.003166662063449621
6148000000.0 -0.0040292260237038136 -0.004704585764557123
6152000000.0 -0.004075694363564253 0.004786833189427853
6156000000.0 0.005229332949966192 0.003419375978410244
6160000000.0 0.002612438751384616 -0.005760626867413521
6164000000.0 -0.00614882493391633 -0.0016354668186977506
6168000000.0 -0.0007280641002580523 0.006337941158562899
6172000000.0 0.0062862238846719265 -0.00019465138029772788
6176000000.0 -0.0011927965097129345 -0.006004304625093937
6180000000.0 -0.005668415687978268 0.00203298800624907
6184000000.0 0.002800071146339178 0.005203147418797016
6188000000.0 0.004788938909769058 -0.003368939273059368
6192000000.0 -0.004166200757026672 -0.003995660226792097
6196000000.0 -0.0033257228787988424 0.004626899491995573
6200000000.0 0.004879187326878309 0.0026390510611236095
6204000000.0 0.001967305550351739 -0.005174595862627029
6208000000.0 -0.00524005014449358 -0.00117792550008744
6212000000.0 -0.0003960577305406332 0.005212349817156792
6216000000.0 0.005207122303545475 -0.00012158181925769895
6220000000.0 -0.0007518334314227104 -0.004930692259222269
6224000000.0 -0.004900929518043995 0.0013444781070575118
6228000000.0 0.0019400243181735277 0.004666327033191919
6232000000.0 0.0043939752504229546 -0.0025565589312464
6236000000.0 -0.0030576372519135475 -0.003969857934862375
6240000000.0 -0.0035495443735271692 0.003449798561632633
6244000000.0 0.0038597751408815384 0.0030069327913224697
6248000000.0 0.002560495864599943 -0.004248558543622494
6252000000.0 -0.00456744572147727 -0.002118484117090702
6256000000.0 -0.0015811222838237882 0.004778335336595774
6260000000.0 0.0050641559064388275 0.0009802337735891342
6264000000.0 0.0002573356032371521 -0.005229308735579252
6268000000.0 -0.005078592337667942 0.0004921463550999761
6272000000.0 0.0011691986583173275 0.00515563553199172
6276000000.0 0.004945782013237476 -0.0019321675645187497
6280000000.0 -0.0025719311088323593 -0.004774248227477074
6284000000.0 -0.004413004964590073 0.003182582790032029
6288000000.0 0.003983389586210251 0.004019470419734716
6292000000.0 0.003422832116484642 -0.004448516294360161
6296000000.0 -0.0052275569178164005 -0.0027294885367155075
6300000000.0 -0.0019942112267017365 0.005543656647205353
6304000000.0 0.005890245083719492 0.0011519900290295482
6308000000.0 0.00017081861733458936 -0.005891510285437107
6312000000.0 -0.0060051204636693 0.0008200500742532313
6316000000.0 0.0016607082216069102 0.005643508862704039
6320000000.0 0.0053949253633618355 -0.0026711756363511086
6324000000.0 -0.0033014719374477863 -0.004891041666269302
6328000000.0 -0.004191857762634754 0.004027435090392828
6332000000.0 0.004622368142008781 0.0035751494579017162
6336000000.0 0.002747303107753396 -0.00499332370236516
6340000000.0 -0.00531935365870595 -0.0020524158608168364
6344000000.0 -0.0011636315612122416 0.005395216401666403
6348000000.0 0.005304884165525436 0.0003952837723772973
6352000000.0 -0.00023510426399298012 -0.005259654484689236
6356000000.0 -0.005063693039119244 0.0009360272670164704
6360000000.0 0.001615285873413086 0.004832636099308729
6364000000.0 0.004591201897710562 -0.002187042962759733
6368000000.0 -0.002699760952964425 -0.004255532752722502
6372000000.0 -0.003797343699261546 0.0032070584129542112
6376000000.0 0.0036621219478547573 0.003320783143863082
6380000000.0 0.002797048771753907 -0.00395146245136857
6384000000.0 -0.00435001403093338 -0.0023255853448063135
6388000000.0 -0.001725190901197493 0.0046515087597072124
6392000000.0 0.004730346146970987 0.0010962531669065356
6396000000.0 0.0004893313744105399 -0.004950148519128561
6400000000.0 -0.00502318749204278 0.00011804151290562004
6404000000.0 0.0008076867088675499 0.004941807594150305
6408000000.0 0.004858297295868397 -0.00145410792902112
6412000000.0 -0.0020427266135811806 -0.004729728680104017
6416000000.0 -0.004420034121721983 0.0027827888261526823
6420000000.0 0.0035440917126834393 0.004115650895982981
6424000000.0 0.003503885120153427 -0.004080284386873245
6428000000.0 -0.004542180337011814 -0.002859102562069893
6432000000.0 -0.0022180494852364063 0.005059112329035997
6436000000.0 0.005230084992945194 0.0016008388483896852
6440000000.0 0.0007209535106085241 -0.005513303447514772
6444000000.0 -0.005750596057623625 0.00010565117554506287
6448000000.0 0.0011153817176818848 0.005564063787460327
6452000000.0 0.005327798426151276 -0.002163694705814123
6456000000.0 -0.002870668424293399 -0.004862319678068161
6460000000.0 -0.004319498781114817 0.0036098146811127663
6464000000.0 0.00404831487685442 0.003588859224691987
6468000000.0 0.0029738550074398518 -0.004478564951568842
6472000000.0 -0.004821070935577154 -0.0022412315011024475
6476000000.0 -0.001370338723063469 0.005009472370147705
6480000000.0 0.005050599575042725 0.0005592579836957157
6484000000.0 -0.00010137407662114128 -0.004949336871504784
6488000000.0 -0.0048322188667953014 0.0007382665062323213
6492000000.0 0.0012357642408460379 0.004495718516409397
6496000000.0 0.004179532639682293 -0.0019044840009883046
6500000000.0 -0.002370583824813366 -0.003977924585342407
6504000000.0 -0.00356098054908216 0.0027204458601772785
6508000000.0 0.0032234990503638983 0.0031036464497447014
6512000000.0 0.0026736417785286903 -0.003401894122362137
6516000000.0 -0.0037068696692585945 -0.0022077823523432016
6520000000.0 -0.0017634639516472816 0.0039498768746852875
6524000000.0 0.004208238795399666 0.0013316640397533774
6528000000.0 0.0007755313999950886 -0.004494821652770042
6532000000.0 -0.0045075141824781895 -0.0001488714333390817
6536000000.0 0.0005284302169457078 0.004565064795315266
6540000000.0 0.0043694693595170975 -0.0010658118408173323
6544000000.0 -0.0016142085660248995 -0.004225624725222588
6548000000.0 -0.003990319091826677 0.0020376075990498066
6552000000.0 0.0026379895862191916 0.0038286878261715174
6556000000.0 0.0034604014363139868 -0.003285700920969248
6560000000.0 -0.0037466799840331078 -0.002959537785500288
6564000000.0 -0.0022445060312747955 0.004214288666844368
6568000000.0 0.004563567694276571 0.0017431711312383413
6572000000.0 0.0010898582404479384 -0.004801800940185785
6576000000.0 -0.00486779073253274 -0.0003717472718562931
6580000000.0 0.0003371885686647147 0.0051134489476680756
6584000000.0 0.004928772337734699 -0.001178521430119872
6588000000.0 -0.0019185724668204784 -0.004819104447960854
6592000000.0 -0.004340078216046095 0.0027619381435215473
6596000000.0 0.0032676984556019306 0.0037362801376730204
6600000000.0 0.0030975209083408117 -0.003776079509407282
6604000000.0 -0.004156135953962803 -0.0025137080810964108
6608000000.0 -0.001845568884164095 0.004406319465488195
6612000000.0 0.004528637044131756 0.0010946202091872692
6616000000.0 0.0003971691767219454 -0.004624729044735432
6620000000.0 -0.004410633351653814 0.0001255584938917309
6624000000.0 0.0008280635229311883 0.004200452473014593
6628000000.0 0.0040064710192382336 -0.0013220480177551508
6632000000.0 -0.0017301681218668818 -0.0037179384380578995
6636000000.0 -0.003376720706000924 0.002222617855295539
6640000000.0 0.002593779470771551 0.003094807965680957
6644000000.0 0.0026371211279183626 -0.0028749508783221245
6648000000.0 -0.0031374774407595396 -0.002206635195761919
6652000000.0 -0.0017807177500799298 0.003398503642529249
6656000000.0 0.0034808763302862644 0.0014428856084123254
6660000000.0 0.0009071578970178962 -0.003655803157016635
6664000000.0 -0.0036937217228114605 -0.000570077623706311
6668000000.0 -4.8683818022254854e-05 0.003879775758832693
6672000000.0 0.0038376408629119396 -0.00043723906856030226
6676000000.0 -0.0009353413479402661 -0.0037712801713496447
6680000000.0 -0.0036013915669173002 0.001275737420655787
6684000000.0 0.001779599697329104 0.0035041768569499254
6688000000.0 0.0034180411603301764 -0.002219898160547018
6692000000.0 -0.002581618959084153 -0.0031230836175382137
6696000000.0 -0.002723938087001443 0.003160789841786027
6700000000.0 0.003618669928982854 0.002371069975197315
6704000000.0 0.0018517813878133893 -0.004084152635186911
6708000000.0 -0.004291781224310398 -0.0012169524561613798
6712000000.0 -0.0007366812787950039 0.004483836703002453
6716000000.0 0.004637199454009533 -8.395695476792753e-05
6720000000.0 -0.00077286665327847 -0.004599106963723898
6724000000.0 -0.004454659763723612 0.001568978070281446
6728000000.0 0.002327724825590849 0.004153651185333729
6732000000.0 0.003791388124227524 -0.00303336838260293
6736000000.0 -0.00355742871761322 -0.0031725403387099504
6740000000.0 -0.002628600224852562 0.004018732346594334
6744000000.0 0.004370430950075388 0.0018594713183119893
6748000000.0 0.0011267452500760555 -0.004477526992559433
6752000000.0 -0.004472201690077782 -0.00033441834966652095
6756000000.0 0.00044974125921726227 0.004432324785739183
6760000000.0 0.004172678105533123 -0.0009667329140938818
6764000000.0 -0.001496808952651918 -0.003914834465831518
6768000000.0 -0.003602083306759596 0.0019441989716142416
6772000000.0 0.0023499822709709406 0.0032408677507191896
6776000000.0 0.002771560335531831 -0.002782439114525914
6780000000.0 -0.0030761007219552994 -0.0023539308458566666
6784000000.0 -0.0018911552615463734 0.0032391424756497145
6788000000.0 0.0033865298610180616 0.0013871215051040053
6792000000.0 0.000962583115324378 -0.003440564265474677
6796000000.0 -0.0034956643357872963 -0.0005077049136161804
6800000000.0 -0.00010465267405379564 0.00346950301900506
6804000000.0 0.0034003928303718567 -0.0002759604249149561
6808000000.0 -0.0007970164879225194 -0.00340549205429852
6812000000.0 -0.00326400063931942 0.0011835477780550718
6816000000.0 0.001557742478325963 0.003066185861825943
6820000000.0 0.0028229490853846073 -0.001903996802866459
6824000000.0 -0.002348708687350154 -0.002534581581130624
6828000000.0 -0.0023582486901432276 0.002625797176733613
6832000000.0 0.002853473648428917 0.0019594053737819195
6836000000.0 0.001671697129495442 -0.0031760353595018387
6840000000.0 -0.0034253092017024755 -0.0012888280907645822
6844000000.0 -0.0007929003913886845 0.0036113217938691378
6848000000.0 0.003767250804230571 0.0004159398376941681
6852000000.0 -0.0002082603459712118 -0.0037303310818970203
6856000000.0 -0.0038063053507357836 0.0007196894730441272
6860000000.0 0.0013147169956937432 0.0035880275536328554
6864000000.0 0.0034386783372610807 -0.0018467644695192575
6868000000.0 -0.0023340056650340557 -0.0031805767212063074
6872000000.0 -0.0027836253866553307 0.00279902177862823
6876000000.0 0.00327127194032073 0.002257175976410508
6880000000.0 0.0018620240734890103 -0.003549392567947507
6884000000.0 -0.003764251945540309 -0.0012258103815838695
6888000000.0 -0.0005901114782318473 0.003981727175414562
6892000000.0 0.003965375479310751 -3.320423638797365e-05
6896000000.0 -0.0005515344091691077 -0.0037385481409728527
6900000000.0 -0.0035428660921752453 0.0012770728208124638
6904000000.0 0.0016808282816782594 0.003302967641502619
6908000000.0 0.0030300491489470005 -0.0021154191344976425
6912000000.0 -0.002564936876296997 -0.0026091544423252344
6916000000.0 -0.002209409838542342 0.0028037424199283123
6920000000.0 0.002990254433825612 0.0017254039412364364
6924000000.0 0.0012563553173094988 -0.0030090089421719313
6928000000.0 -0.0032062672544270754 -0.0008232755935750902
6932000000.0 -0.0004559494263958186 0.0032362735364586115
6936000000.0 0.0031393866520375013 7.178716623457149e-05
6940000000.0 -0.00018431185162626207 -0.0031574959866702557
6944000000.0 -0.0030038354452699423 0.0006263635586947203
6948000000.0 0.0010812042746692896 0.0028627272695302963
6952000000.0 0.002672351896762848 -0.001393983606249094
6956000000.0 -0.0016832059482112527 -0.002488822443410754
6960000000.0 -0.0022201344836503267 0.00194457673933357
6964000000.0 0.0021822734270244837 0.0020610399078577757
6968000000.0 0.001696252729743719 -0.002402455313131213
6972000000.0 -0.0026579706463962793 -0.0015049335779622197
6976000000.0 -0.0011039221426472068 0.002861160086467862
6980000000.0 0.0030534749384969473 0.0007721076253801584
6984000000.0 0.00035505963023751974 -0.003060130635276437
6988000000.0 -0.003066112520173192 -6.171294080559164e-05
6992000000.0 0.00020538399985525757 0.003065715543925762
6996000000.0 0.0031918068416416645 -0.0007739689899608493
7000000000.0 -0.0011234815465286374 -0.0031844754703342915
7004000000.0 -0.003060936462134123 0.0016926140524446964
7008000000.0 0.0022143071983009577 0.0027557602152228355
7012000000.0 0.0023313292767852545 -0.002578382845968008
7016000000.0 -0.0030006065499037504 -0.002050731796771288
7020000000.0 -0.001651225844398141 0.0032675231341272593
7024000000.0 0.003486783243715763 0.0012403980363160372
7028000000.0 0.0005995890242047608 -0.003738334635272622
7032000000.0 -0.003957539796829224 -0.00010150083835469559
7036000000.0 0.0007023753132671118 0.003918579779565334
7040000000.0 0.0037464620545506477 -0.0012270589359104633
7044000000.0 -0.0018123211339116096 -0.003407018957659602
7048000000.0 -0.0031045968644320965 0.0022044184152036905
7052000000.0 0.002731839893385768 0.0027317325584590435
7056000000.0 0.0023212465457618237 -0.003060769522562623
7060000000.0 -0.0032992863561958075 -0.001793874311260879
7064000000.0 -0.0013138777576386929 0.00360229704529047
7068000000.0 0.0036690975539386272 0.0007335308473557234
7072000000.0 0.0001233949005836621 -0.0036986684426665306
7076000000.0 -0.003584977239370346 0.00039100347203202546
7080000000.0 0.000848081661388278 0.0034756551031023264
7084000000.0 0.0033026107121258974 -0.0014128704788163304
7088000000.0 -0.0017798483604565263 -0.0030628733802586794
7092000000.0 -0.0026669844519346952 0.002154042711481452
7096000000.0 0.0023760490585118532 0.002410542918369174
7100000000.0 0.0020900059025734663 -0.002664203057065606
7104000000.0 -0.002953442744910717 -0.001824204227887094
7108000000.0 -0.0013362406753003597 0.0031461594626307487
7112000000.0 0.0033798241056501865 0.0008903610287234187
7116000000.0 0.0004896255559287965 -0.003603643039241433
7120000000.0 -0.003495597979053855 0.0001282531302422285
7124000000.0 0.0004582341352943331 0.003366048214957118
7128000000.0 0.0033065825700759888 -0.0009029450011439621
7132000000.0 -0.0013030630070716143 -0.0031448579393327236
7136000000.0 -0.0029746568761765957 0.0017419522628188133
7140000000.0 0.0022298647090792656 0.0027225129306316376
7144000000.0 0.0023593062069267035 -0.002619887934997678
7148000000.0 -0.002989609958603978 -0.0020053954795002937
7152000000.0 -0.0015259669162333012 0.003219077130779624
7156000000.0 0.0034792800433933735 0.0010189269669353962
7160000000.0 0.0005589529173448682 -0.0036440445110201836
7164000000.0 -0.00369369238615036 -6.688515713904053e-05
7168000000.0 0.0005616204580292106 0.0035699561703950167
7172000000.0 0.003526655724272132 -0.0009009953937493265
7176000000.0 -0.00155406363774091 -0.0033563312608748674
7180000000.0 -0.003159454558044672 0.0020984828006476164
7184000000.0 0.00252816011197865 0.0027348618023097515
7188000000.0 0.0022708470933139324 -0.0030781866516917944
7192000000.0 -0.003292498178780079 -0.0017817590851336718
7196000000.0 -0.0011452001053839922 0.0034189564175903797
7200000000.0 0.003455442376434803 0.0006721807294525206
7204000000.0 0.00018971579265780747 -0.0035153680946677923
7208000000.0 -0.0035348974633961916 0.00024829895119182765
7212000000.0 0.0008482876583002508 0.003566082799807191
7216000000.0 0.0035248661879450083 -0.0014041023096069694
7220000000.0 -0.001904884004034102 -0.003100444097071886
7224000000.0 -0.0026871790178120136 0.002354902448132634
7228000000.0 0.0026903587859123945 0.0022434769198298454
7232000000.0 0.0019125366816297174 -0.002779874252155423
7236000000.0 -0.002906199311837554 -0.0015843621222302318
7240000000.0 -0.0010960204526782036 0.0032081534154713154
7244000000.0 0.0032152701169252396 0.0006871225195936859
7248000000.0 8.612916280981153e-05 -0.0033858902752399445
7252000000.0 -0.0032182398717850447 0.00039164168993011117
7256000000.0 0.0008075100486166775 0.0029935797210782766
7260000000.0 0.0028048378881067038 -0.0011412976309657097
7264000000.0 -0.0014036771608516574 -0.0026342952623963356
7268000000.0 -0.0024860124103724957 0.0017636081902310252
7272000000.0 0.002145869191735983 0.002320117549970746
7276000000.0 0.0019541310612112284 -0.0024106865748763084
7280000000.0 -0.0024913677480071783 -0.001736168866045773
7284000000.0 -0.0013258204562589526 0.0027355554047971964
7288000000.0 0.0028811960946768522 0.0007949416758492589
7292000000.0 0.0005592292291112244 -0.0030081598088145256
7296000000.0 -0.002984813414514065 1.9230858470109524e-06
7300000000.0 0.00040071929106488824 0.0029051636811345816
7304000000.0 0.0029052889440208673 -0.0009561805054545403
7308000000.0 -0.001117174862883985 -0.0026646419428288937
7312000000.0 -0.0025037943851202726 0.0015320399543270469
7316000000.0 0.0018404416041448712 0.0023844095412641764
7320000000.0 0.0021386216394603252 -0.0022988624405115843
7324000000.0 -0.0026351038832217455 -0.0017910593887791038
7328000000.0 -0.0013014760334044695 0.0029881936497986317
7332000000.0 0.003017718205228448 0.0007420798647217453
7336000000.0 0.00028789558564312756 -0.0029659494757652283
7340000000.0 -0.003032297594472766 9.703579053166322e-06
7344000000.0 0.00045754018356092274 0.0030660172924399376
7348000000.0 0.0029603568837046623 -0.0008324180962517858
7352000000.0 -0.0012785937869921327 -0.002805287018418312
7356000000.0 -0.002626100555062294 0.0017698525916785002
7360000000.0 0.002071267692372203 0.0022449498064816
7364000000.0 0.0019066767999902368 -0.002213509986177087
7368000000.0 -0.0023756595328450203 -0.0015783240087330341
7372000000.0 -0.0013151802122592926 0.002686691004782915
7376000000.0 0.002799320500344038 0.000960600795224309
7380000000.0 0.0006171134300529957 -0.0029525128193199635
7384000000.0 -0.0029276253189891577 -0.00018792503396980464
7388000000.0 0.0002348750422243029 0.0028978295158594847
7392000000.0 0.002873769961297512 -0.0006205844692885876
7396000000.0 -0.0011273203417658806 -0.0026900663506239653
7400000000.0 -0.0025271009653806686 0.0014324575895443559
7404000000.0 0.0018399084219709039 0.002438288414850831
7408000000.0 0.0019656489603221416 -0.0021026774775236845
7412000000.0 -0.0023756606969982386 -0.0017693835543468595
7416000000.0 -0.0014499638928100467 0.0025662961415946484
7420000000.0 0.00270234327763319 0.0010934151941910386
7424000000.0 0.0007890846463851631 -0.0028086830861866474
7428000000.0 -0.0029603990260511637 -0.0002870798925869167
7432000000.0 0.00020788091933354735 0.0030475512612611055
7436000000.0 0.002995814196765423 -0.0006095855496823788
7440000000.0 -0.0009940818417817354 -0.0028294234070926905
7444000000.0 -0.002569562755525112 0.001372047234326601
7448000000.0 0.0017646061023697257 0.002416728064417839
7452000000.0 0.002063177293166518 -0.002015425357967615
7456000000.0 -0.002372763119637966 -0.0018407430034130812
7460000000.0 -0.0014441238017752767 0.002672911388799548
7464000000.0 0.002852304605767131 0.0009257722413167357
7468000000.0 0.0003705367853399366 -0.002920356346294284
7472000000.0 -0.002935018390417099 2.3098406018107198e-05
7476000000.0 0.0004739236901514232 0.0028844347689300776
7480000000.0 0.0028594110626727343 -0.000745271856430918
7484000000.0 -0.0010979900835081935 -0.002879526698961854
7488000000.0 -0.002635594457387924 0.0015761697432026267
7492000000.0 0.002032772870734334 0.002413274021819234
7496000000.0 0.0020931821782141924 -0.002428803127259016
7500000000.0 -0.0026043527759611607 -0.0017277172300964594
7504000000.0 -0.001200981787405908 0.002829765435308218
7508000000.0 0.0030157603323459625 0.0006034289253875613
7512000000.0 0.00026343282661400735 -0.0029498992953449488
7516000000.0 -0.0029263945762068033 0.00012906764459330589
7520000000.0 0.0005980548448860645 0.0028944446239620447
7524000000.0 0.0027474057860672474 -0.0008684695931151509
7528000000.0 -0.0012255242327228189 -0.0025852899998426437
7532000000.0 -0.0022699690889567137 0.0016032051062211394
7536000000.0 0.0019340887665748596 0.002012805314734578
7540000000.0 0.001745784655213356 -0.002067975699901581
7544000000.0 -0.0023832276929169893 -0.0014564832672476768
7548000000.0 -0.0010135647607967257 0.002473667496815324
7552000000.0 0.00259245908819139 0.0007051651482470334
7556000000.0 0.0003073671832680702 -0.0025814881082624197
7560000000.0 -0.0026517477817833424 5.681429229298374e-06
7564000000.0 0.0004078454221598804 0.00267016445286572
7568000000.0 0.0024999980814754963 -0.0007243159925565124
7572000000.0 -0.0012079820735380054 -0.002296141581609845
7576000000.0 -0.0022967143449932337 0.0014931914629414678
7580000000.0 0.0016588966827839613 0.0019535436294972897
7584000000.0 0.0017450243467465043 -0.0018874630331993103
7588000000.0 -0.0021905768662691116 -0.0015819042455404997
7592000000.0 -0.001088426448404789 0.0023353486321866512
7596000000.0 0.0026064938865602016 0.000836414285004139
7600000000.0 0.0004140063829254359 -0.0028072448913007975
7604000000.0 -0.0028105448000133038 0.00010670381016097963
7608000000.0 0.0005202160100452602 0.0028162216767668724
7612000000.0 0.0027841876726597548 -0.0008790740394033492
7616000000.0 -0.0013351383386179805 -0.0026478017680346966
7620000000.0 -0.0023465468548238277 0.0019558460917323828
7624000000.0 0.0022691308986395597 0.0019551238510757685
7628000000.0 0.0015809391625225544 -0.002711053006350994
7632000000.0 -0.0028367850463837385 -0.0010574717307463288
7636000000.0 -0.0004603555134963244 0.0029673173557966948
7640000000.0 0.002951760310679674 -5.6585195125080645e-05
7644000000.0 -0.0006381219136528671 -0.002767253201454878
7648000000.0 -0.0025563337840139866 0.0010750427609309554
7652000000.0 0.0014638456050306559 0.002121940953657031
7656000000.0 0.0017973853973671794 -0.0016488449182361364
7660000000.0 -0.0017434327164664865 -0.001494819764047861
7664000000.0 -0.0011406546691432595 0.0018940465524792671
7668000000.0 0.0019421338802203536 0.0009424622403457761
7672000000.0 0.0006114189745858312 -0.0018690918805077672
7676000000.0 -0.001928949961438775 -0.00029383611399680376
7680000000.0 -0.00011619574070209637 0.0017936069052666426
7684000000.0 0.0017420570366084576 -0.00015138706658035517
7688000000.0 -0.00027599252643994987 -0.0016850827960297465
7692000000.0 -0.0014628381468355656 0.0004674869996961206
7696000000.0 0.0005616102134808898 0.001428525778464973
7700000000.0 0.0013898961478844285 -0.000691919238306582
7704000000.0 -0.0007901836070232093 -0.0012969034723937511
7708000000.0 -0.0012883675517514348 0.0010083107044920325
7712000000.0 0.001056752516888082 0.0011937943054363132
7716000000.0 0.000939366698730737 -0.001255822367966175
7720000000.0 -0.0014122113352641463 -0.0008234850829467177
7724000000.0 -0.0007929382845759392 0.0015808319440111518
7728000000.0 0.0016800039447844028 0.0004590040189214051
7732000000.0 0.0003318748786114156 -0.0016613984480500221
7736000000.0 -0.0017648530192673206 -0.0001515816547907889
7740000000.0 8.319378684973344e-05 0.0019070551497861743
7744000000.0 0.001864447956904769 -0.00035140314139425755
7748000000.0 -0.0008114377269521356 -0.0019740290008485317
7752000000.0 -0.001904930337332189 0.0010826538782566786
7756000000.0 0.001536687952466309 0.0016752431401982903
7760000000.0 0.0014086973387748003 -0.0019645746797323227
7764000000.0 -0.00221732328645885 -0.0009516220889054239
7768000000.0 -0.000392594316508621 0.002370829926803708
7772000000.0 0.002334491815418005 -0.00013027754903305322
7776000000.0 -0.0006483304314315319 -0.0020964888390153646
7780000000.0 -0.0017943473067134619 0.0010446641827002168
7784000000.0 0.0012448037741705775 0.0014271229738369584
7788000000.0 0.001048444421030581 -0.001377962762489915
7792000000.0 -0.0013858731836080551 -0.0008365655085071921
7796000000.0 -0.0005566823529079556 0.0012740950332954526
7800000000.0 0.001349533093161881 0.00032397249015048146
7804000000.0 0.0002747690596152097 -0.0013018592726439238
7808000000.0 -0.0012418960686773062 -0.00014881743118166924
7812000000.0 7.836358417989686e-05 0.0010698254918679595
7816000000.0 0.0010157383512705564 -0.00021679540805052966
7820000000.0 -0.0002512905921321362 -0.0008868002332746983
7824000000.0 -0.0008355274330824614 0.00031901145121082664
7828000000.0 0.0003930508391931653 0.0009235996985808015
7832000000.0 0.0008578778943046927 -0.0005046955775469542
7836000000.0 -0.0005051660700701177 -0.0007588244625367224
7840000000.0 -0.0007018693722784519 0.0005776946782134473
7844000000.0 0.0006218584021553397 0.0005080332630313933
7848000000.0 0.00051933154463768 -0.0006875513354316354
7852000000.0 -0.0006840783171355724 -0.00044710710062645376
7856000000.0 -0.0004386260698083788 0.0007267391192726791
7860000000.0 0.0008921877015382051 0.00037398331915028393
7864000000.0 0.00023879898071754724 -0.000905590015463531
7868000000.0 -0.0009744309936650097 -0.0001499034115113318
7872000000.0 -6.114287316449918e-06 0.0009832794312387705
7876000000.0 0.0009918551659211516 2.8053043934050947e-05
7880000000.0 -0.0001726841292111203 -0.0011982939904555678
7884000000.0 -0.0011937156086787581 0.0003608283877838403
7888000000.0 0.0004984133411198854 0.0011743056820705533
7892000000.0 0.0011419150978326797 -0.0008000237285159528
7896000000.0 -0.001080055721104145 -0.0010286906035616994
7900000000.0 -0.0008690026588737965 0.001417742227204144
7904000000.0 0.0015972433611750603 0.0002688885433599353
7908000000.0 -9.976902947528288e-05 -0.0015704601537436247
7912000000.0 -0.0014401277294382453 0.00041555266943760216
7916000000.0 0.0006174443406052887 0.0011477242223918438
7920000000.0 0.0008538986439816654 -0.0007431916310451925
7924000000.0 -0.0007656160742044449 -0.0006358413957059383
7928000000.0 -0.00048135180259123445 0.0007200409309007227
7932000000.0 0.0007812788244336843 0.00033249976695515215
7936000000.0 0.0002865558781195432 -0.0008034688653424382
7940000000.0 -0.0007202890119515359 -0.00022194111079443246
7944000000.0 -0.00021110025409143418 0.0007248240290209651
7948000000.0 0.000630222843028605 3.6635501601267606e-05
7952000000.0 1.99376190721523e-05 -0.0005527862231247127
7956000000.0 -0.0004989613080397248 4.14578607887961e-05
7960000000.0 0.00012173901632195339 0.0005488827009685338
7964000000.0 0.0004889849224127829 -0.00022490030096378177
7968000000.0 -0.00012006280303467065 -0.0004935245960950851
7972000000.0 -0.0005607291241176426 0.0002159956784453243
7976000000.0 0.00026440684450790286 0.0004649376787710935
7980000000.0 0.000585261732339859 -0.000282135559245944
7984000000.0 -0.0002948491310235113 -0.00045611741370521486
7988000000.0 -0.0003736365179065615 0.0002854441408999264
7992000000.0 0.0004298118001315743 0.0005031776381656528
7996000000.0 0.0004192761261947453 -0.00048264540964737535
8000000000.0 -0.00048143466119654477 -0.00038261993904598057
