! Created with skrf 1.10.0 (http://scikit-rf.org).
# Hz S RI R 50.0 
!freq ReS11 ImS11
!
4000000000.0 0.011712283827364445 0.008665736764669418
4004000000.0 0.007116669323295355 -0.012816056609153748
4008000000.0 -0.013593913987278938 -0.00555628165602684
4012000000.0 -0.00369754689745605 0.01417675893753767
4016000000.0 0.01473967544734478 0.0019052319694310427
4020000000.0 -8.837920904625207e-05 -0.015126978978514671
4024000000.0 -0.01531893014907837 0.002424489473924041
4028000000.0 0.00468402449041605 0.014787809923291206
4032000000.0 0.013970062136650085 -0.006975166965276003
4036000000.0 -0.008912332355976105 -0.012888399884104729
4040000000.0 -0.011215434409677982 0.010633666068315506
4044000000.0 0.01214190199971199 0.009821457788348198
4048000000.0 0.007906831800937653 -0.013552849180996418
4052000000.0 -0.01472366601228714 -0.005733919329941273
4056000000.0 -0.003337439615279436 0.0156608447432518
4060000000.0 0.015974894165992737 0.0008901661494746804
4064000000.0 -0.0015637683682143688 -0.0153955714777112
4068000000.0 -0.01524012628942728 0.0038767822552472353
4072000000.0 0.005867913831025362 0.01419774442911148
4076000000.0 0.013064758852124214 -0.00787206832319498
4080000000.0 -0.009456837549805641 -0.011652487330138683
4084000000.0 -0.010024580173194408 0.01091055478900671
4088000000.0 0.012235991656780243 0.008374007418751717
4092000000.0 0.006361109204590321 -0.013028230518102646
4096000000.0 -0.013939711265265942 -0.004446955863386393
4100000000.0 -0.0021067955531179905 0.014037896879017353
4104000000.0 0.014046563766896725 0.00027224994846619666
4108000000.0 -0.0017175856046378613 -0.013787358067929745
4112000000.0 -0.013217502273619175 0.0034525126684457064
4116000000.0 0.005128402728587389 0.012411740608513355
4120000000.0 0.011661561205983162 -0.006742638535797596
4124000000.0 -0.008282328955829144 -0.01044665277004242
4128000000.0 -0.008983339183032513 0.0095886941999197
4132000000.0 0.01087963953614235 0.007762033957988024
4136000000.0 0.005976426415145397 -0.01143153477460146
4140000000.0 -0.012014864943921566 -0.004511414561420679
4144000000.0 -0.0028698479291051626 0.01225525513291359
4148000000.0 0.012636549770832062 0.0013404561905190349
4152000000.0 -0.00022838461154606193 -0.012543213553726673
4156000000.0 -0.012511638924479485 0.0018319578375667334
4160000000.0 0.0034908559173345566 0.012510957196354866
4164000000.0 0.011916013434529305 -0.005099001340568066
4168000000.0 -0.006673993542790413 -0.011078624986112118
4172000000.0 -0.010308765806257725 0.008094892837107182
4176000000.0 0.00938363466411829 0.009002779610455036
4180000000.0 0.007476307451725006 -0.010301249101758003
4184000000.0 -0.011497074738144875 -0.0061675007455050945
4188000000.0 -0.0044887494295835495 0.012285253033041954
4192000000.0 0.012640483677387238 0.002559207146987319
4196000000.0 0.0009309543529525399 -0.013205996714532375
4200000000.0 -0.013127033598721027 0.0009276786586269736
4204000000.0 0.0027272305451333523 0.01334450300782919
4208000000.0 0.012828748673200607 -0.0049505592323839664
4212000000.0 -0.006919194478541613 -0.01193581335246563
4216000000.0 -0.010568348690867424 0.00850070919841528
4220000000.0 0.009869290515780449 0.009382822550833225
4224000000.0 0.007845759391784668 -0.011016671545803547
4228000000.0 -0.012402514927089214 -0.006521718110889196
4232000000.0 -0.004480980336666107 0.01337078120559454
4236000000.0 0.014132828451693058 0.0024738034699112177
4240000000.0 0.0003527588560245931 -0.01434793695807457
4244000000.0 -0.014118936844170094 0.0023043251130729914
4248000000.0 0.004024061374366283 0.01336220744997263
4252000000.0 0.012805938720703125 -0.0060179452411830425
4256000000.0 -0.007885953411459923 -0.011331697925925255
4260000000.0 -0.010027484968304634 0.009278842248022556
4264000000.0 0.0104401595890522 0.00847563985735178
4268000000.0 0.006845011841505766 -0.011553996242582798
4272000000.0 -0.012222718447446823 -0.004952690098434687
4276000000.0 -0.003236661199480295 0.012641577050089836
4280000000.0 0.012754659168422222 0.0012526620412245393
4284000000.0 -0.0006550445687025785 -0.01275639608502388
4288000000.0 -0.012228335253894329 0.0023762567434459925
4292000000.0 0.0038857280742377043 0.011609960347414017
4296000000.0 0.010748104192316532 -0.005509094335138798
4300000000.0 -0.006733647547662258 -0.009592975489795208
4304000000.0 -0.008606978692114353 0.007684898097068071
4308000000.0 0.00870506465435028 0.007440922781825066
4312000000.0 0.006336520425975323 -0.009550182148814201
4316000000.0 -0.01012236624956131 -0.005111279431730509
4320000000.0 -0.0035444609820842743 0.01071510836482048
4324000000.0 0.010995808057487011 0.0021675629541277885
4328000000.0 0.0007646981975995004 -0.01121106743812561
4332000000.0 -0.010905398987233639 0.0005862016114406288
4336000000.0 0.001863815006799996 0.010844091884791851
4340000000.0 0.010734465904533863 -0.0030854668002575636
4344000000.0 -0.0045643034391105175 -0.010204085148870945
4348000000.0 -0.009565421380102634 0.005806888919323683
4352000000.0 0.007285900879651308 0.008677469566464424
4356000000.0 0.007571699097752571 -0.008342508226633072
4360000000.0 -0.00924362987279892 -0.006515313405543566
4364000000.0 -0.005138921085745096 0.01029952708631754
4368000000.0 0.010979549959301949 0.004261452704668045
4372000000.0 0.0027059682179242373 -0.011907786130905151
4376000000.0 -0.012439264915883541 -0.0007283299346454442
4380000000.0 0.0007761443266645074 0.012423736974596977
4384000000.0 0.012201559729874134 -0.002506329445168376
4388000000.0 -0.004258301109075546 -0.01200783159583807
4392000000.0 -0.011822459287941456 0.006071118172258139
4396000000.0 0.008148464374244213 0.010973239317536354
4400000000.0 0.009930367581546307 -0.009910889901220798
4404000000.0 -0.011665798723697662 -0.008056586608290672
4408000000.0 -0.006189966574311256 0.012964759953320026
4412000000.0 0.01348311547189951 0.003878058632835746
4416000000.0 0.0016328515484929085 -0.014416244812309742
4420000000.0 -0.014326581731438637 0.0005846036947332323
4424000000.0 0.0028208738658577204 0.013962820172309875
4428000000.0 0.013202087953686714 -0.005106853321194649
4432000000.0 -0.0070509654469788074 -0.012031005695462227
4436000000.0 -0.010689168237149715 0.008948208764195442
4440000000.0 0.010329646989703178 0.00884756539016962
4444000000.0 0.006892211735248566 -0.01119803637266159
4448000000.0 -0.012001357041299343 -0.00530989607796073
4452000000.0 -0.003489820286631584 0.012467513792216778
4456000000.0 0.012497751042246819 0.0014806988183408976
4460000000.0 -0.00034277443774044514 -0.012392526492476463
4464000000.0 -0.011869111098349094 0.0025159220676869154
4468000000.0 0.004107976797968149 0.011234493926167488
4472000000.0 0.010558489710092545 -0.005663489457219839
4476000000.0 -0.006801840849220753 -0.008967583067715168
4480000000.0 -0.007986698299646378 0.007624392863363028
4484000000.0 0.008494388312101364 0.007066465448588133
4488000000.0 0.005703022237867117 -0.009334668517112732
4492000000.0 -0.009887411259114742 -0.004276770167052746
4496000000.0 -0.0029381662607192993 0.010221592150628567
4500000000.0 0.010374590754508972 0.001622763811610639
4504000000.0 0.00021687849948648363 -0.010435462929308414
4508000000.0 -0.010085714980959892 0.0010644695721566677
4512000000.0 0.002327405381947756 0.010021544061601162
4516000000.0 0.009649007581174374 -0.0035181220155209303
4520000000.0 -0.0046046641655266285 -0.009176949970424175
4524000000.0 -0.008563322015106678 0.005878404248505831
4528000000.0 0.006959907244890928 0.00789810810238123
4532000000.0 0.00689719757065177 -0.00809400249272585
4536000000.0 -0.00898350402712822 -0.005629640072584152
4540000000.0 -0.004411347210407257 0.010001413524150848
4544000000.0 0.010413993149995804 0.003101846668869257
4548000000.0 0.00170561030972749 -0.010712254792451859
4552000000.0 -0.010909226723015308 -0.0006642707157880068
4556000000.0 0.001022893120534718 0.011193335056304932
4560000000.0 0.011241593398153782 -0.0027257809415459633
4564000000.0 -0.004360882565379143 -0.01109557505697012
4568000000.0 -0.01055761706084013 0.005926849786192179
4572000000.0 0.007809164468199015 0.00949836801737547
4576000000.0 0.008217928931117058 -0.009014448150992393
4580000000.0 -0.01031380333006382 -0.006920491345226765
4584000000.0 -0.005216388031840324 0.011452460661530495
4588000000.0 0.01224437728524208 0.0035035463515669107
4592000000.0 0.0015882131410762668 -0.012996637262403965
4596000000.0 -0.01319694984704256 0.0006528419908136129
4600000000.0 0.002734182635322213 0.012942631728947163
4604000000.0 0.012301760725677013 -0.005016773007810116
4608000000.0 -0.007116371765732765 -0.011120740324258804
4612000000.0 -0.009820730425417423 0.009122495539486408
4616000000.0 0.010541249066591263 0.007919354364275932
4620000000.0 0.005787362810224295 -0.01143429521471262
4624000000.0 -0.011846560053527355 -0.003647624049335718
4628000000.0 -0.0015692685265094042 0.011996361427009106
4632000000.0 0.011531546711921692 -0.0001425526279490441
4636000000.0 -0.001895475317724049 -0.01094534806907177
4640000000.0 -0.010601949878036976 0.0033929706551134586
4644000000.0 0.004658389370888472 0.009724329225718975
4648000000.0 0.008500782772898674 -0.005772486794739962
4652000000.0 -0.0065887547098100185 -0.007273472845554352
4656000000.0 -0.006507413927465677 0.0074701858684420586
4660000000.0 0.007822719402611256 0.005138815380632877
4664000000.0 0.004216240253299475 -0.008277534507215023
4668000000.0 -0.008478062227368355 -0.003119055647403002
4672000000.0 -0.0019185279961675406 0.00896404031664133
4676000000.0 0.008810196071863174 0.0007183513953350484
4680000000.0 -0.0008071033516898751 -0.00874271895736456
4684000000.0 -0.008566665463149548 0.0015934723196551204
4688000000.0 0.002580636413767934 0.008049635216593742
4692000000.0 0.00795187707990408 -0.003453472163528204
4696000000.0 -0.004400321748107672 -0.007339221891015768
4700000000.0 -0.006631362251937389 0.005159106571227312
4704000000.0 0.005954683758318424 0.005963153671473265
4708000000.0 0.005241177044808865 -0.00679692393168807
4712000000.0 -0.007287526503205299 -0.0041343136690557
4716000000.0 -0.003310017054900527 0.008012250065803528
4720000000.0 0.008303914219141006 0.0022880099713802338
4724000000.0 0.0012976240832358599 -0.008502990938723087
4728000000.0 -0.008723147213459015 -0.00023653659445699304
4732000000.0 0.0010570897720754147 0.008819797076284885
4736000000.0 0.008774206042289734 -0.0020590703934431076
4740000000.0 -0.0032441988587379456 -0.008508788421750069
4744000000.0 -0.008087772876024246 0.0045096599496901035
4748000000.0 0.005653490778058767 0.007507488131523132
4752000000.0 0.006778237409889698 -0.006640912499278784
4756000000.0 -0.008004213683307171 -0.006130818277597427
4760000000.0 -0.0049273245967924595 0.009000982157886028
4764000000.0 0.00987344328314066 0.0036182072944939137
4768000000.0 0.001761098625138402 -0.010568876750767231
4772000000.0 -0.01086336001753807 -4.832294871448539e-05
4776000000.0 0.0017546593444421887 0.010615626350045204
4780000000.0 0.010558441281318665 -0.003538628341630101
4784000000.0 -0.005424193572252989 -0.009735900908708572
4788000000.0 -0.008488945662975311 0.006765095517039299
4792000000.0 0.008204806596040726 0.007391775026917458
4796000000.0 0.005747152492403984 -0.009141365066170692
4800000000.0 -0.009797794744372368 -0.0041037267073988914
4804000000.0 -0.002582778688520193 0.010061179287731647
4808000000.0 0.010070870630443096 0.000782080867793411
4812000000.0 -0.0006549105164594948 -0.010050792247056961
4816000000.0 -0.009623575024306774 0.002163633005693555
4820000000.0 0.0035801189951598644 0.00897954497486353
4824000000.0 0.00811742339283228 -0.004905821289867163
4828000000.0 -0.0057831439189612865 -0.007137496955692768
4832000000.0 -0.00618767412379384 0.006753348745405674
4836000000.0 0.007391982711851597 0.004909174051135778
4840000000.0 0.0038308342918753624 -0.007787727285176516
4844000000.0 -0.007991703227162361 -0.0026646656915545464
4848000000.0 -0.0016059133922681212 0.008075715973973274
4852000000.0 0.008137044496834278 0.0006377975805662572
4856000000.0 -0.00039698215550743043 -0.007897218689322472
4860000000.0 -0.007709136698395014 0.001451162388548255
4864000000.0 0.002282405039295554 0.007316433358937502
4868000000.0 0.0069701517932116985 -0.0031405470799654722
4872000000.0 -0.004141661338508129 -0.00641445629298687
4876000000.0 -0.005783256608992815 0.0047005717642605305
4880000000.0 0.005498402286320925 0.005093007814139128
4884000000.0 0.0043577891774475574 -0.0060837892815470695
4888000000.0 -0.006476449314504862 -0.0036251519341021776
4892000000.0 -0.002806734759360552 0.006966612301766872
4896000000.0 0.007172850891947746 0.0020406136754900217
4900000000.0 0.0009700839291326702 -0.007671106606721878
4904000000.0 -0.007624979596585035 8.939225517679006e-05
4908000000.0 0.0010505466489121318 0.007583121303468943
4912000000.0 0.007302381563931704 -0.0019453961867839098
4916000000.0 -0.0028499492909759283 -0.007174227386713028
4920000000.0 -0.006837192922830582 0.0037124904338270426
4924000000.0 0.004794793669134378 0.006559118628501892
4928000000.0 0.0059190900065004826 -0.005769716575741768
4932000000.0 -0.006657747086137533 -0.005057971924543381
4936000000.0 -0.004134385846555233 0.00732196681201458
4940000000.0 0.0077757397666573524 0.0030639031901955605
4944000000.0 0.0019377906573936343 -0.008406136184930801
4948000000.0 -0.008769362233579159 -0.0005586389452219009
4952000000.0 0.0006105508073233068 0.008842325769364834
4956000000.0 0.008735653012990952 -0.001900731585919857
4960000000.0 -0.003271722234785557 -0.008472046814858913
4964000000.0 -0.008141763508319855 0.004599983338266611
4968000000.0 0.0058809323236346245 0.007312806323170662
4972000000.0 0.006453205365687609 -0.007139645051211119
4976000000.0 -0.008156782016158104 -0.0052322037518024445
4980000000.0 -0.003612757194787264 0.00894590187817812
4984000000.0 0.009408208541572094 0.0021141187753528357
4988000000.0 0.0005461155669763684 -0.009420973248779774
4992000000.0 -0.009279911406338215 0.0009866453474387527
4996000000.0 0.0023226942867040634 0.009035682305693626
5000000000.0 0.008354287594556808 -0.0036205125506967306
5004000000.0 -0.004880321212112904 -0.007654303219169378
5008000000.0 -0.006703828927129507 0.005912293680012226
5012000000.0 0.006731641013175249 0.005656010936945677
5016000000.0 0.0043507651425898075 -0.007368180900812149
5020000000.0 -0.007881429977715015 -0.003153974423184991
5024000000.0 -0.0020414020400494337 0.00791993923485279
5028000000.0 0.00807200837880373 0.0008299861801788211
5032000000.0 -0.00011290591646684334 -0.007906343787908554
5036000000.0 -0.007605730090290308 0.0011965878074988723
5040000000.0 0.002345568500459194 0.00732953567057848
5044000000.0 0.006963357329368591 -0.0031832631211727858
5048000000.0 -0.004166378639638424 -0.00628800131380558
5052000000.0 -0.0055917552672326565 0.00488555571064353
5056000000.0 0.005480209365487099 0.004784159827977419
5060000000.0 0.0038638252299278975 -0.005985296331346035
5064000000.0 -0.006563520524650812 -0.003146886359900236
5068000000.0 -0.0022953355219215155 0.006605720613151789
5072000000.0 0.006607044022530317 0.00151522655505687
5076000000.0 0.000638372846879065 -0.006915656849741936
5080000000.0 -0.006833881605416536 0.0002970899804495275
5084000000.0 0.001250479486770928 0.006790671497583389
5088000000.0 0.00665254145860672 -0.002058018697425723
5092000000.0 -0.0028850678354501724 -0.006317335180938244
5096000000.0 -0.005663538817316294 0.0035873032175004482
5100000000.0 0.00430761044844985 0.005394257139414549
5104000000.0 0.0047011468559503555 -0.005043006502091885
5108000000.0 -0.005870717111974955 -0.004152481444180012
5112000000.0 -0.0033905641175806522 0.006113775074481964
5116000000.0 0.006818479858338833 0.0022707083262503147
5120000000.0 0.0017618827987462282 -0.007086342200636864
5124000000.0 -0.007132234983146191 -0.0007244056323543191
5128000000.0 0.00029521260876208544 0.007271175738424063
5132000000.0 0.007298628333956003 -0.001526146661490202
5136000000.0 -0.0025413103867322206 -0.007073479704558849
5140000000.0 -0.006858101114630699 0.003501713275909424
5144000000.0 0.004430902190506458 0.006376326084136963
5148000000.0 0.0056485566310584545 -0.005670894868671894
5152000000.0 -0.006415979005396366 -0.00487878080457449
5156000000.0 -0.0038100476376712322 0.00700319604948163
5160000000.0 0.007648489437997341 0.0027410313487052917
5164000000.0 0.0016489771660417318 -0.007690609432756901
5168000000.0 -0.007974265143275261 -0.000367142929462716
5172000000.0 0.00081727682845667 0.008120282553136349
5176000000.0 0.00768713653087616 -0.0021209409460425377
5180000000.0 -0.003237640019506216 -0.007183069828897715
5184000000.0 -0.0066994233056902885 0.0042701843194663525
5188000000.0 0.005048244260251522 0.0059249140322208405
5192000000.0 0.005202253814786673 -0.005982300266623497
5196000000.0 -0.006609334610402584 -0.004189989995211363
5200000000.0 -0.003057644935324788 0.007122868672013283
5204000000.0 0.007446113973855972 0.0018777130171656609
5208000000.0 0.0007360553718172014 -0.007518373895436525
5212000000.0 -0.007569911424070597 0.0003506010107230395
5216000000.0 0.00139438861515373 0.00733278039842844
5220000000.0 0.006957897916436195 -0.0025597214698791504
5224000000.0 -0.003372312057763338 -0.00644447049126029
5228000000.0 -0.005775835830718279 0.004207816440612078
5232000000.0 0.004841709043830633 0.004936397075653076
5236000000.0 0.0042517720721662045 -0.005472559481859207
5240000000.0 -0.00585150346159935 -0.003345786826685071
5244000000.0 -0.0027687891852110624 0.006156219635158777
5248000000.0 0.006392577197402716 0.0017928797751665115
5252000000.0 0.0009342316770926118 -0.006511401850730181
5256000000.0 -0.006435384973883629 -0.0001221376151079312
5260000000.0 0.0008188756764866412 0.00629570335149765
5264000000.0 0.0061002857983112335 -0.0014839202631264925
5268000000.0 -0.0022687765303999186 -0.005872529465705156
5272000000.0 -0.005518028512597084 0.0031378520652651787
5276000000.0 0.003687256248667836 0.004883434623479843
5280000000.0 0.00447462871670723 -0.004244953393936157
5284000000.0 -0.004790208768099546 -0.0039144097827374935
5288000000.0 -0.003323651384562254 0.005264893174171448
5292000000.0 0.005594415124505758 0.0025722766295075417
5296000000.0 0.0018844526493921876 -0.005843170452862978
5300000000.0 -0.006091883406043053 -0.0009929579682648182
5304000000.0 -0.0002251122350571677 0.00614864332601428
5308000000.0 0.0062583982944488525 -0.00030102403252385557
5312000000.0 -0.0010931226424872875 -0.006251633632928133
5316000000.0 -0.006092069670557976 0.0020110830664634705
5320000000.0 0.0028823567554354668 0.005936552304774523
5324000000.0 0.005526638124138117 -0.003624310251325369
5328000000.0 -0.004288739524781704 -0.005070011597126722
5332000000.0 -0.004621476400643587 0.005072989966720343
5336000000.0 0.005744235590100288 0.003957707434892654
5340000000.0 0.0030339648947119713 -0.006431736052036285
5344000000.0 -0.00693607609719038 -0.002052165800705552
5348000000.0 -0.0011090575717389584 0.007245952729135752
5352000000.0 0.007590105291455984 -2.4480774300172925e-05
5356000000.0 -0.0013006499502807856 -0.00753769651055336
5360000000.0 -0.007343299686908722 0.0024208580143749714
5364000000.0 0.0035425499081611633 0.006932025775313377
5368000000.0 0.006376725155860186 -0.004569954238831997
5372000000.0 -0.005551804788410664 -0.005621589720249176
5376000000.0 -0.0045715938322246075 0.006550883408635855
5380000000.0 0.007137342356145382 0.0036083341110497713
5384000000.0 0.002169529441744089 -0.007599166128784418
5388000000.0 -0.00778069905936718 -0.0009649957064539194
5392000000.0 0.0002343483065487817 0.007719798944890499
5396000000.0 0.007471236865967512 -0.0013880099868401885
5400000000.0 -0.002454684814438224 -0.007191959302872419
5404000000.0 -0.006630566902458668 0.0033847910817712545
5408000000.0 0.004335591569542885 0.005987890064716339
5412000000.0 0.005095546133816242 -0.005102681461721659
5416000000.0 -0.005743951536715031 -0.004277198109775782
5420000000.0 -0.003209470771253109 0.00616110023111105
5424000000.0 0.006474019028246403 0.002167775295674801
5428000000.0 0.0013827899238094687 -0.006539895664900541
5432000000.0 -0.006521619390696287 -0.0003961349430028349
5436000000.0 0.0005947944591753185 0.006322398316115141
5440000000.0 0.006073452532291412 -0.0013115935726091266
5444000000.0 -0.0021088975481688976 -0.005829926580190659
5448000000.0 -0.0054283482022583485 0.0028382493183016777
5452000000.0 0.003547593019902706 0.004976051859557629
5456000000.0 0.0043700747191905975 -0.00402311235666275
5460000000.0 -0.004497204907238483 -0.0038489114958792925
5464000000.0 -0.003271527588367462 0.0048422846011817455
5468000000.0 0.005158065818250179 0.002657221397385001
5472000000.0 0.0019900300540030003 -0.005463858135044575
5476000000.0 -0.005784233100712299 -0.001363955088891089
5480000000.0 -0.0006185530801303685 0.005906137637794018
5484000000.0 0.006025934591889381 -0.00018830192857421935
5488000000.0 -0.0008999144192785025 -0.006076872814446688
5492000000.0 -0.005822079721838236 0.001771132810972631
5496000000.0 0.002469835802912712 0.005572221707552671
5500000000.0 0.005322692450135946 -0.0032409217674285173
5504000000.0 -0.003972193226218224 -0.004844986367970705
5508000000.0 -0.004353297874331474 0.004813536070287228
5512000000.0 0.005417747423052788 0.003605285659432411
5516000000.0 0.0028545367531478405 -0.0060061137191951275
5520000000.0 -0.0062827919609844685 -0.001993041718378663
5524000000.0 -0.0011084462748840451 0.006481850985437632
5528000000.0 0.006754084024578333 0.00015884630556683987
5532000000.0 -0.0007408226956613362 -0.006786803714931011
5536000000.0 -0.006692782510071993 0.0018182476051151752
5540000000.0 0.0029633715748786926 0.006392888259142637
5544000000.0 0.005788388196378946 -0.0037810257636010647
5548000000.0 -0.004600325133651495 -0.005163831636309624
5552000000.0 -0.004509306512773037 0.005271038040518761
5556000000.0 0.0058810049667954445 0.003639685921370983
5560000000.0 0.0028189122676849365 -0.006525574717670679
5564000000.0 -0.00706257252022624 -0.001618842827156186
5568000000.0 -0.0004245361196808517 0.007033595349639654
5572000000.0 0.006797249894589186 -0.0007759369909763336
5576000000.0 -0.0016561049269512296 -0.006477041635662317
5580000000.0 -0.00620594946667552 0.002454330213367939
5584000000.0 0.0034459917806088924 0.00570948189124465
5588000000.0 0.00509507255628705 -0.004250760655850172
5592000000.0 -0.00499797472730279 -0.0042833066545426846
5596000000.0 -0.003170290496200323 0.0054129622876644135
5600000000.0 0.0056805480271577835 0.0024152155965566635
5604000000.0 0.0015831798082217574 -0.00576035026460886
5608000000.0 -0.005696031264960766 -0.000870459945872426
5612000000.0 -0.0002694466384127736 0.0056831385008990765
5616000000.0 0.0055337040685117245 -0.00045888344175182283
5620000000.0 -0.001358476816676557 -0.005559203680604696
5624000000.0 -0.005226926878094673 0.00203180150128901
5628000000.0 0.002527485368773341 0.004638523329049349
5632000000.0 0.004287890158593655 -0.003126809373497963
5636000000.0 -0.00360853155143559 -0.00385572318919003
5640000000.0 -0.0035300389863550663 0.003980695270001888
5644000000.0 0.004384967964142561 0.003050528233870864
5648000000.0 0.002503178082406521 -0.004824672359973192
5652000000.0 -0.005077817011624575 -0.0018934565596282482
5656000000.0 -0.0010238802060484886 0.005375362932682037
5660000000.0 0.005392248742282391 0.00044743993203155696
5664000000.0 -0.00028494297293946147 -0.0054873754270374775
5668000000.0 -0.005337504204362631 0.0009412404033355415
5672000000.0 0.0016540259821340442 0.00530284084379673
5676000000.0 0.004960544873028994 -0.0023606980685144663
5680000000.0 -0.0030699754133820534 -0.004760810639709234
5684000000.0 -0.0043092090636491776 0.003684618277475238
5688000000.0 0.004038800485432148 0.0037153002340346575
5692000000.0 0.0033344717230647802 -0.004681008402258158
5696000000.0 -0.005124394316226244 -0.0027597034350037575
5700000000.0 -0.0019084933446720243 0.0057029020972549915
5704000000.0 0.005947848316282034 0.0010060106869786978
5708000000.0 0.00017442827811464667 -0.006184792146086693
5712000000.0 -0.006197524722665548 0.0008108971524052322
5716000000.0 0.0014511242043226957 0.005910912062972784
5720000000.0 0.005659944843500853 -0.002352600684389472
5724000000.0 -0.0033108589705079794 -0.005496878642588854
5728000000.0 -0.005190356634557247 0.00419611344113946
5732000000.0 0.005083370488137007 0.004380150698125362
5736000000.0 0.0033188550733029842 -0.005759093444794416
5740000000.0 -0.006102211307734251 -0.002284265123307705
5744000000.0 -0.0013551990268751979 0.006332524120807648
5748000000.0 0.006576628424227238 0.0006013858364894986
5752000000.0 -0.00040860724402591586 -0.006599115207791328
5756000000.0 -0.0063123260624706745 0.0015909187495708466
5760000000.0 0.0026286074426025152 0.005881413817405701
5764000000.0 0.005273972172290087 -0.0031722160056233406
5768000000.0 -0.003980706445872784 -0.0046876464039087296
5772000000.0 -0.003951933700591326 0.00461089052259922
5776000000.0 0.005041127093136311 0.0034243755508214235
5780000000.0 0.0025871573016047478 -0.00528387725353241
5784000000.0 -0.005621292628347874 -0.0019276428502053022
5788000000.0 -0.000977876828983426 0.005826596636325121
5792000000.0 0.005785778630524874 0.00013790941738989204
5796000000.0 -0.000492928724270314 -0.005679722875356674
5800000000.0 -0.005436032544821501 0.001363382674753666
5804000000.0 0.002047892427071929 0.00512135261669755
5808000000.0 0.0047731054946780205 -0.002591179683804512
5812000000.0 -0.0032963277772068977 -0.004221908748149872
5816000000.0 -0.003860010067000985 0.003915931563824415
5820000000.0 0.004376592580229044 0.0033549799118191004
5824000000.0 0.002658451208844781 -0.00472983717918396
5828000000.0 -0.004970876965671778 -0.001966447103768587
5832000000.0 -0.0013197751250118017 0.005352323409169912
5836000000.0 0.0054306648671627045 0.0004878171894233674
5840000000.0 -9.776803926797584e-05 -0.005401586182415485
5844000000.0 -0.005231725051999092 0.001055747619830072
5848000000.0 0.0015630522975698113 0.00509827584028244
5852000000.0 0.004782123025506735 -0.0020665766205638647
5856000000.0 -0.0028664954006671906 -0.004472523462027311
5860000000.0 -0.004156160168349743 0.0034274128265678883
5864000000.0 0.003910668659955263 0.003691628575325012
5868000000.0 0.0030803780537098646 -0.004515593871474266
5872000000.0 -0.0047193183563649654 -0.002365240128710866
5876000000.0 -0.0017459751106798649 0.005043470300734043
5880000000.0 0.005324412137269974 0.0009473530226387084
5884000000.0 0.00042541269795037806 -0.0054560075514018536
5888000000.0 -0.005427323281764984 0.00046005594776943326
5892000000.0 0.0011436119675636292 0.0055462210439145565
5896000000.0 0.005222994834184647 -0.0020061226096004248
5900000000.0 -0.0027651088312268257 -0.005067832767963409
5904000000.0 -0.004634283483028412 0.0033980929292738438
5908000000.0 0.004144106060266495 0.0040706973522901535
5912000000.0 0.0034705111756920815 -0.004845128394663334
5916000000.0 -0.005304398946464062 -0.002732734428718686
5920000000.0 -0.0018682348309084773 0.005671913269907236
5924000000.0 0.005842943210154772 0.0009002201841212809
5928000000.0 0.00016992850578390062 -0.0059945350512862206
5932000000.0 -0.0061404588632285595 0.0007587421569041908
5936000000.0 0.0017214681720361114 0.005896966904401779
5940000000.0 0.005460336338728666 -0.002587371040135622
5944000000.0 -0.003512436058372259 -0.004885693080723286
5948000000.0 -0.004419864621013403 0.0042753503657877445
5952000000.0 0.004852649290114641 0.0036239465698599815
5956000000.0 0.0027376182842999697 -0.005193206015974283
5960000000.0 -0.005520626436918974 -0.002095831325277686
5964000000.0 -0.001231976319104433 0.005738259758800268
5968000000.0 0.005773971788585186 0.00040580827044323087
5972000000.0 -0.0005512565257959068 -0.005461910739541054
5976000000.0 -0.005373630207031965 0.0013822839828208089
5980000000.0 0.0020751063711941242 0.0049490174278616905
5984000000.0 0.004666792694479227 -0.0027022610884159803
5988000000.0 -0.0031569304410368204 -0.0040675317868590355
5992000000.0 -0.003446533577516675 0.0037090424448251724
5996000000.0 0.004121935460716486 0.0028481886256486177
6000000000.0 0.0022461176849901676 -0.004374804440885782
6004000000.0 -0.004711414221674204 -0.0016557449707761407
6008000000.0 -0.0009982408955693245 0.004807106219232082
6012000000.0 0.004748404957354069 0.00032378872856497765
6016000000.0 -0.00026755515136756003 -0.004823395051062107
6020000000.0 -0.004617494996637106 0.0010051187127828598
6024000000.0 0.0016270093619823456 0.00441407086327672
6028000000.0 0.004224885255098343 -0.0021211495622992516
6032000000.0 -0.0027330731973052025 -0.003784294705837965
6036000000.0 -0.003330797189846635 0.0030308510176837444
6040000000.0 0.0033523887395858765 0.0028885172214359045
6044000000.0 0.0024724709801375866 -0.003795981639996171
6048000000.0 -0.004127247259020805 -0.002024965826421976
6052000000.0 -0.001409728080034256 0.004354869015514851
6056000000.0 0.004473008681088686 0.0008625241462141275
6060000000.0 0.00031919791945256293 -0.004526520147919655
6064000000.0 -0.0043949526734650135 0.00032711931271478534
6068000000.0 0.0007589851738885045 0.004504790063947439
6072000000.0 0.004450669512152672 -0.001399042084813118
6076000000.0 -0.002121004508808255 -0.004144430160522461
6080000000.0 -0.003916232381016016 0.0026845175307244062
6084000000.0 0.0032930243760347366 0.003691381774842739
6088000000.0 0.003303787438198924 -0.003768566297367215
6092000000.0 -0.004355820827186108 -0.0025116626638919115
6096000000.0 -0.001940040267072618 0.004714546725153923
6100000000.0 0.004996587056666613 0.0011878516525030136
6104000000.0 0.00034369766945019364 -0.005204151384532452
6108000000.0 -0.005220675375312567 0.0005105250747874379
6112000000.0 0.001421328284777701 0.005055183544754982
6116000000.0 0.004812783561646938 -0.0020828177221119404
6120000000.0 -0.0028472067788243294 -0.0044363122433424
6124000000.0 -0.003938206005841494 0.0035210975911468267
6128000000.0 0.0040612295269966125 0.003204669803380966
6132000000.0 0.0024554601404815912 -0.0044059474021196365
6136000000.0 -0.004706120118498802 -0.0018710861913859844
6140000000.0 -0.0012668156996369362 0.004840046167373657
6144000000.0 0.005044372286647558 0.0004001788911409676
6148000000.0 -0.00021791398467030376 -0.004758087918162346
6152000000.0 -0.0048104459419846535 0.0008731763809919357
6156000000.0 0.0016059968620538712 0.0044781058095395565
6160000000.0 0.00412594573572278 -0.002258316380903125
6164000000.0 -0.0027861359994858503 -0.0038679614663124084
6168000000.0 -0.003256983356550336 0.003310457104817033
6172000000.0 0.0035818880423903465 0.0026868381537497044
6176000000.0 0.002157956827431917 -0.003842573147267103
6180000000.0 -0.004124154336750507 -0.0016771367518231273
6184000000.0 -0.0010544161777943373 0.004218603018671274
6188000000.0 0.004214940592646599 0.0005471802433021367
6192000000.0 -8.451066969428211e-05 -0.0042342329397797585
6196000000.0 -0.004147720988839865 0.000579399464186281
6200000000.0 0.0010946431430056691 0.0040005845949053764
6204000000.0 0.003918938338756561 -0.0016933161532506347
6208000000.0 -0.0020821981597691774 -0.003483661450445652
6212000000.0 -0.003286802675575018 0.0024995559360831976
6216000000.0 0.002887572394683957 0.0028371072839945555
6220000000.0 0.002434845780953765 -0.0032888520509004593
6224000000.0 -0.0035750907845795155 -0.0021264790557324886
6228000000.0 -0.0015221962239593267 0.0038726867642253637
6232000000.0 0.004103122744709253 0.001165072899311781
6236000000.0 0.00048309139674529433 -0.004162671975791454
6240000000.0 -0.004304369445890188 0.00011244534834986553
6244000000.0 0.0006386342574842274 0.004110139794647694
6248000000.0 0.004092502407729626 -0.0013107595732435584
6252000000.0 -0.0017960196128115058 -0.004010663367807865
6256000000.0 -0.0038605022709816694 0.0024265607353299856
6260000000.0 0.0030933013185858727 0.003519849618896842
6264000000.0 0.0029401013161987066 -0.0035696893464773893
6268000000.0 -0.004038005601614714 -0.00236328411847353
6272000000.0 -0.0017187187913805246 0.004371619783341885
6276000000.0 0.004673824179917574 0.00101613684091717
6280000000.0 0.0004212866479065269 -0.004844448063522577
6284000000.0 -0.004735975991934538 0.0004398665332701057
6288000000.0 0.001163505599834025 0.004647507332265377
6292000000.0 0.004315464291721582 -0.0019411554094403982
6296000000.0 -0.0025473281275480986 -0.00405105110257864
6300000000.0 -0.003571281209588051 0.0031452039256691933
6304000000.0 0.0037371914368122816 0.0030790907330811024
6308000000.0 0.0022713649086654186 -0.004153373651206493
6312000000.0 -0.004396964330226183 -0.0016402932815253735
6316000000.0 -0.0009668360580690205 0.00445136521011591
6320000000.0 0.0043892026878893375 0.00022936469758860767
6324000000.0 -0.0003816284879576415 -0.004392027854919434
6328000000.0 -0.00417077774181962 0.0010147610446438193
6332000000.0 0.0016426978399977088 0.00387733057141304
6336000000.0 0.0035065612755715847 -0.0022844967897981405
6340000000.0 -0.0026522439438849688 -0.003088010475039482
6344000000.0 -0.0026451358571648598 0.0029462475795298815
6348000000.0 0.0032030155416578054 0.0021505928598344326
6352000000.0 0.00166898884344846 -0.0033994370605796576
6356000000.0 -0.0034584272652864456 -0.0012928422074764967
6360000000.0 -0.0008222105097956955 0.00361958472058177
6364000000.0 0.003644437761977315 0.00026758090825751424
6368000000.0 -0.00020255398703739047 -0.003628686536103487
6372000000.0 -0.003583635203540325 0.0006859448621980846
6376000000.0 0.0010743836173787713 0.003321279538795352
6380000000.0 0.0031995230820029974 -0.0014353300211951137
6384000000.0 -0.0017426396952942014 -0.003051409963518381
6388000000.0 -0.002791153034195304 0.0021951033268123865
6392000000.0 0.002519934205338359 0.002473636530339718
6396000000.0 0.0021547265350818634 -0.0029503994155675173
6400000000.0 -0.003243440529331565 -0.0016480296617373824
6404000000.0 -0.001286299666389823 0.00349190435372293
6408000000.0 0.003641054965555668 0.0007623356068506837
6412000000.0 0.0002867422881536186 -0.003724579233676195
6416000000.0 -0.0038456141483038664 0.00028088109684176743
6420000000.0 0.0008036207291297615 0.003798064077273011
6424000000.0 0.0036194827407598495 -0.0012545317877084017
6428000000.0 -0.0019437774317339063 -0.003370836144313216
6432000000.0 -0.0031286932062357664 0.0023579904809594154
6436000000.0 0.002771421568468213 0.0027915893588215113
6440000000.0 0.0023251427337527275 -0.003293993417173624
6444000000.0 -0.003616373986005783 -0.0018077327404171228
6448000000.0 -0.0012088201474398375 0.0038975393399596214
6452000000.0 0.004135409835726023 0.0006310527096502483
6456000000.0 -7.030188135104254e-05 -0.0040390039794147015
6460000000.0 -0.003979651257395744 0.0007929332205094397
6464000000.0 0.0012395294615998864 0.00375054101459682
6468000000.0 0.0034929648973047733 -0.0018398844404146075
6472000000.0 -0.002349596004933119 -0.003120857523754239
6476000000.0 -0.0026635979302227497 0.00285140099003911
6480000000.0 0.003141946392133832 0.0021445276215672493
6484000000.0 0.0016003166092559695 -0.0034061861224472523
6488000000.0 -0.003499333281069994 -0.001056363107636571
6492000000.0 -0.0005919146933592856 0.0034717696253210306
6496000000.0 0.0034024689812213182 0.00011817795893875882
6500000000.0 -0.00040490436367690563 -0.0033652486745268106
6504000000.0 -0.003178445855155587 0.0008845150005072355
6508000000.0 0.0012335513019934297 0.003055875888094306
6512000000.0 0.0028207048308104277 -0.0016009793616831303
6516000000.0 -0.0018926897319033742 -0.0025072330608963966
6520000000.0 -0.0022309692576527596 0.002145815175026655
6524000000.0 0.002397898817434907 0.0019269715994596481
6528000000.0 0.0016583026153966784 -0.0027019893750548363
6532000000.0 -0.0028512966819107533 -0.0012114973505958915
6536000000.0 -0.0007873003487475216 0.0029450268484652042
6540000000.0 0.00300267874263227 0.0005182284512557089
6544000000.0 8.840826922096312e-05 -0.0029751048423349857
6548000000.0 -0.003134541679173708 0.00022229748719837517
6552000000.0 0.0006111362017691135 0.0030199335888028145
6556000000.0 0.0029080985113978386 -0.0010680448031052947
6560000000.0 -0.0013904968509450555 -0.0028410558588802814
6564000000.0 -0.0025764910969883204 0.0018500955775380135
6568000000.0 0.0021807251032441854 0.002306014532223344
6572000000.0 0.00211608549579978 -0.0024834650103002787
6576000000.0 -0.0026922428514808416 -0.001811768626794219
6580000000.0 -0.0014984785811975598 0.003080018563196063
6584000000.0 0.0032568490132689476 0.001035778783261776
6588000000.0 0.0004950552829541266 -0.003481185296550393
6592000000.0 -0.0035286792553961277 5.966217941022478e-05
6596000000.0 0.0005091371131129563 0.0035462966188788414
6600000000.0 0.0034234689082950354 -0.0009806090965867043
6604000000.0 -0.001596252084709704 -0.003389366203919053
6608000000.0 -0.0031027011573314667 0.00216460507363081
6612000000.0 0.0025722451973706484 0.0027029807679355145
6616000000.0 0.0023281455505639315 -0.0030648582614958286
6620000000.0 -0.003414921695366502 -0.0018142942572012544
6624000000.0 -0.0013012159615755081 0.0036334667820483446
6628000000.0 0.0038576319348067045 0.0006888412754051387
6632000000.0 2.220345550085767e-06 -0.0038208921905606985
6636000000.0 -0.0037855093833059072 0.0005452483892440796
6640000000.0 0.0012132779229432344 0.0036287526600062847
6644000000.0 0.0033002598211169243 -0.0018268357962369919
6648000000.0 -0.0023578545078635216 -0.0029807991813868284
6652000000.0 -0.002539637265726924 0.0025822846218943596
6656000000.0 0.0028947866521775723 0.0020166717004030943
6660000000.0 0.0015519290463998914 -0.0031846947968006134
6664000000.0 -0.0033469044137746096 -0.0010210374603047967
6668000000.0 -0.00048239249736070633 0.0035027104895561934
6672000000.0 0.0034349963534623384 -9.70486507867463e-06
6676000000.0 -0.00048519312986172736 -0.0033663506619632244
6680000000.0 -0.0030273243319243193 0.0009433357627131045
6684000000.0 0.0011184788309037685 0.002859607106074691
6688000000.0 0.002592946868389845 -0.0016083981608971953
6692000000.0 -0.0019264162983745337 -0.0023746786173433065
6696000000.0 -0.002180706709623337 0.002166203921660781
6700000000.0 0.002420231932774186 0.0017753072315827012
6704000000.0 0.001523542799986899 -0.002646887907758355
6708000000.0 -0.0027066876646131277 -0.0011425197590142488
6712000000.0 -0.0007912220316939056 0.0027740567456930876
6716000000.0 0.0029466040432453156 0.0003842430014628917
6720000000.0 -6.444275641115382e-05 -0.0029185833409428596
6724000000.0 -0.002901745494455099 0.00042710735579021275
6728000000.0 0.000781178125180304 0.002845631679520011
6732000000.0 0.002739024581387639 -0.0011985352030023932
6736000000.0 -0.001506048603914678 -0.0026341944467276335
6740000000.0 -0.0023669449146836996 0.0018660157220438123
6744000000.0 0.0022549661807715893 0.0021326960995793343
6748000000.0 0.0017499529058113694 -0.0024247998371720314
6752000000.0 -0.0028003815095871687 -0.0014359098859131336
6756000000.0 -0.0010927710682153702 0.002919386839494109
6760000000.0 0.0030559299048036337 0.0006043508765287697
6764000000.0 0.00024179699539672583 -0.0032035959884524345
6768000000.0 -0.0031881046015769243 0.00020029806182719767
6772000000.0 0.000614851014688611 0.003240660997107625
6776000000.0 0.0031286636367440224 -0.0012331469915807247
6780000000.0 -0.0016430073883384466 -0.0029537684749811888
6784000000.0 -0.0026882560923695564 0.002093107905238867
6788000000.0 0.0024750037118792534 0.002329910872504115
6792000000.0 0.0019671833142638206 -0.002800768706947565
6796000000.0 -0.003160999156534672 -0.001488100620917976
6800000000.0 -0.001001682598143816 0.003323175245895982
6804000000.0 0.003518173936754465 0.00039502704748883843
6808000000.0 -9.027979103848338e-05 -0.0034748418256640434
6812000000.0 -0.0033296076580882072 0.0006653090240433812
6816000000.0 0.0012149512767791748 0.0032820047345012426
6820000000.0 0.0030121421441435814 -0.001634138752706349
6824000000.0 -0.002055614022538066 -0.0026642545126378536
6828000000.0 -0.002286733826622367 0.0025279484689235687
6832000000.0 0.0027310096193104982 0.0018623092910274863
6836000000.0 0.0013923317892476916 -0.0030102103482931852
6840000000.0 -0.003149969968944788 -0.000885138928424567
6844000000.0 -0.00035192721406929195 0.0032484913244843483
6848000000.0 0.0032239416614174843 -0.00012367100862320513
6852000000.0 -0.0005160078289918602 -0.0031000454910099506
6856000000.0 -0.002820933936163783 0.0009302680264227092
6860000000.0 0.0012689247960224748 0.002709008986130357
6864000000.0 0.0023592012003064156 -0.0017128324834629893
6868000000.0 -0.0018795719370245934 -0.0021478652488440275
6872000000.0 -0.0018674579914659262 0.0022232066839933395
6876000000.0 0.0022861859761178493 0.0014997071120887995
6880000000.0 0.001130259013734758 -0.0023450874723494053
6884000000.0 -0.0025536762550473213 -0.0008569564670324326
6888000000.0 -0.0005685198702849448 0.0026761391200125217
6892000000.0 0.0026635935064405203 0.00029440849903039634
6896000000.0 -0.00012886294280178845 -0.002712880726903677
6900000000.0 -0.0025724212173372507 0.00042367278365418315
6904000000.0 0.0008292616112157702 0.0025147192645817995
6908000000.0 0.002337329788133502 -0.001108056167140603
6912000000.0 -0.0014764120569452643 -0.002184636425226927
6916000000.0 -0.00202865619212389 0.001758004305884242
6920000000.0 0.001970076933503151 0.0017731786938384175
6924000000.0 0.0015243558445945382 -0.0022341525182127953
6928000000.0 -0.0023845063988119364 -0.0011788610136136413
6932000000.0 -0.000814804807305336 0.0025666847359389067
6936000000.0 0.0026379551272839308 0.0005886430735699832
6940000000.0 0.00024513169773854315 -0.0027705752290785313
6944000000.0 -0.0028360309079289436 0.00019296784012112767
6948000000.0 0.0006033476674929261 0.002763947006314993
6952000000.0 0.0027080208528786898 -0.0010614048223942518
6956000000.0 -0.001421470195055008 -0.0025292416103184223
6960000000.0 -0.002412854926660657 0.001770661910995841
6964000000.0 0.002014879370108247 0.002125278813764453
6968000000.0 0.0018444928573444486 -0.0024227623362094164
6972000000.0 -0.0027723207604140043 -0.0014670874224975705
6976000000.0 -0.0010844864882528782 0.0029785651713609695
6980000000.0 0.0031106818933039904 0.0005092101055197418
6984000000.0 6.52449089102447e-05 -0.0031878554727882147
6988000000.0 -0.003177864942699671 0.00043350690975785255
6992000000.0 0.0007505390676669776 0.0029332065023481846
6996000000.0 0.0028869123198091984 -0.001274634269066155
7000000000.0 -0.0018061557784676552 -0.0026681129820644855
7004000000.0 -0.002387658227235079 0.0022098985500633717
7008000000.0 0.002640184946358204 0.0019490710692480206
7012000000.0 0.0015025435714051127 -0.0029330167453736067
7016000000.0 -0.003008391009643674 -0.0009047864587046206
7020000000.0 -0.0004943643580190837 0.0031400963198393583
7024000000.0 0.0031948769465088844 2.1227539036772214e-05
7028000000.0 -0.0004266436444595456 -0.002949862275272608
7032000000.0 -0.002891889540478587 0.0009553774725645781
7036000000.0 0.0013818711740896106 0.002624787390232086
7040000000.0 0.002340370789170265 -0.00166812795214355
7044000000.0 -0.0019710995256900787 -0.0020092150662094355
7048000000.0 -0.001742405816912651 0.0021589118987321854
7052000000.0 0.0023369588889181614 0.0014766911044716835
7056000000.0 0.0011147548211738467 -0.002545819152146578
7060000000.0 -0.0025849263183772564 -0.0007633209461346269
7064000000.0 -0.0003741771215572953 0.0025892143603414297
7068000000.0 0.0025881854817271233 -6.57104974379763e-05
7072000000.0 -0.00045035945367999375 -0.0025292932987213135
7076000000.0 -0.0024780696257948875 0.0007249451009556651
7080000000.0 0.0011301704216748476 0.002243011724203825
7084000000.0 0.0020867905113846064 -0.0012832947541028261
7088000000.0 -0.0015698815695941448 -0.0018915488617494702
7092000000.0 -0.0016074724262580276 0.0017159961862489581
7096000000.0 0.0019658803939819336 0.0015059428988024592
7100000000.0 0.0011239360319450498 -0.002086347434669733
7104000000.0 -0.002241819864138961 -0.000961693178396672
7108000000.0 -0.0006314113270491362 0.0023493000771850348
7112000000.0 0.002506547374650836 0.0003406951727811247
7116000000.0 -5.535994773708808e-07 -0.002550318604335189
7120000000.0 -0.002422921359539032 0.0003400964487809688
7124000000.0 0.0005994972307235003 0.0024315407499670982
7128000000.0 0.0023200949653983116 -0.000879115192219615
7132000000.0 -0.0011461582034826279 -0.0023054659832268953
7136000000.0 -0.0021760370582342148 0.0015300232917070389
7140000000.0 0.0019649562891572714 0.0019764904864132404
7144000000.0 0.0016750236973166466 -0.0022013599518686533
7148000000.0 -0.0024225066881626844 -0.0013299951096996665
7152000000.0 -0.0010241682175546885 0.0025925119407474995
7156000000.0 0.0027828312013298273 0.0006119006429798901
7160000000.0 0.00019111725850962102 -0.0028931223787367344
7164000000.0 -0.002919034566730261 0.00029348640237003565
7168000000.0 0.0007231523049995303 0.0028790822252631187
7172000000.0 0.002793620340526104 -0.0012401471612975001
7176000000.0 -0.0017952056368812919 -0.0025901307817548513
7180000000.0 -0.002368562389165163 0.0021663173101842403
7184000000.0 0.0025344083551317453 0.001875942456535995
7188000000.0 0.00144607771653682 -0.0029711828101426363
7192000000.0 -0.003056652145460248 -0.0008783427765592933
7196000000.0 -0.0002944246807601303 0.0031747575849294662
7200000000.0 0.0031338375993072987 -0.00013096128532197326
7204000000.0 -0.0005367026897147298 -0.002993576694279909
7208000000.0 -0.002952911425381899 0.0010382946347817779
7212000000.0 0.0015920397127047181 0.0026631068903952837
7216000000.0 0.0024422453716397285 -0.0019663695711642504
7220000000.0 -0.00227743829600513 -0.001985179726034403
7224000000.0 -0.0014011383755132556 0.002624201588332653
7228000000.0 0.0026735453866422176 0.0009533666889183223
7232000000.0 0.0005238067824393511 -0.002627613954246044
7236000000.0 -0.0025572089944034815 -0.0002061467239400372
7240000000.0 4.293112215236761e-05 0.002579441526904702
7244000000.0 0.0024495648685842752 -0.0005693877465091646
7248000000.0 -0.0008184774196706712 -0.0023027679417282343
7252000000.0 -0.0021086379420012236 0.001077556167729199
7256000000.0 0.0013339219149202108 0.0018108906224370003
7260000000.0 0.0015213428996503353 -0.0014555734815075994
7264000000.0 -0.0016509382985532284 -0.0014674904523417354
7268000000.0 -0.001186310313642025 0.0017002973472699523
7272000000.0 0.0020109571050852537 0.0009590616682544351
7276000000.0 0.0007065629470162094 -0.002068426925688982
7280000000.0 -0.0020128339529037476 -0.00041526122367940843
7284000000.0 -0.000287709292024374 0.0020987247116863728
7288000000.0 0.002017974155023694 -2.4115550331771374e-05
7292000000.0 -0.00035980448592454195 -0.002045350382104516
7296000000.0 -0.0019962310325354338 0.0006149562541395426
7300000000.0 0.0008200564770959318 0.0019207277800887823
7304000000.0 0.0018102035392075777 -0.0010634154314175248
7308000000.0 -0.0012601682683452964 -0.0015370444161817431
7312000000.0 -0.0014855365734547377 0.0014335577143356204
7316000000.0 0.001706463866867125 0.0013042808277532458
7320000000.0 0.0011721350019797683 -0.0019498318433761597
7324000000.0 -0.0021596853621304035 -0.000822243862785399
7328000000.0 -0.0005626622005365789 0.002366225467994809
7332000000.0 0.0023661493323743343 0.00014299768372438848
7336000000.0 -0.00023337781021837145 -0.002347617642953992
7340000000.0 -0.002408204600214958 0.0004620034887921065
7344000000.0 0.0007824250496923923 0.0023170746862888336
7348000000.0 0.0023792933207005262 -0.0012516685528680682
7352000000.0 -0.0016955517930909991 -0.0022747137118130922
7356000000.0 -0.001969498349353671 0.002134702866896987
7360000000.0 0.0024382586125284433 0.0014647430507466197
7364000000.0 0.001077310531400144 -0.002797427587211132
7368000000.0 -0.002901882864534855 -0.0005755242891609669
7372000000.0 -0.00016486750973854214 0.0030881708953529596
7376000000.0 0.0031480153556913137 -0.00043421966256573796
7380000000.0 -0.001059986650943756 -0.0030084664467722178
7384000000.0 -0.0026519079692661762 0.001639426569454372
7388000000.0 0.0021533381659537554 0.002295431913807988
7392000000.0 0.0016298132250085473 -0.00255749118514359
7396000000.0 -0.002594893565401435 -0.0010066808899864554
7400000000.0 -0.0005473882192745805 0.002616181503981352
7404000000.0 0.002609305316582322 3.905987978214398e-05
7408000000.0 -0.0003432593075558543 -0.0023581148125231266
7412000000.0 -0.002153294626623392 0.0007219409453682601
7416000000.0 0.0009993687272071838 0.0019258713582530618
7420000000.0 0.00162993255071342 -0.0011139751877635717
7424000000.0 -0.0012936097336933017 -0.0012788441963493824
7428000000.0 -0.0011728209210559726 0.0014155276585370302
7432000000.0 0.0014852342428639531 0.0008432777249254286
7436000000.0 0.0005954568623565137 -0.0014965354930609465
7440000000.0 -0.0015808605821803212 -0.0004544574476312846
7444000000.0 -0.0002245137293357402 0.001500016893260181
7448000000.0 0.0014167138142511249 9.81214689090848e-05
7452000000.0 -0.00016622709517832845 -0.001335774315521121
7456000000.0 -0.0013035658048465848 0.00031487090745940804
7460000000.0 0.000462201947811991 0.0013010178226977587
7464000000.0 0.0011135783279314637 -0.0006172865396365523
7468000000.0 -0.0007541603408753872 -0.0010401821928098798
7472000000.0 -0.0008963841246441007 0.000825949595309794
7476000000.0 0.000846525130327791 0.0008132756920531392
7480000000.0 0.0007519880309700966 -0.0009132876293733716
7484000000.0 -0.0009472511010244489 -0.0006844967138022184
7488000000.0 -0.0005823838873766363 0.0010784425539895892
7492000000.0 0.001144685666076839 0.0005384839023463428
7496000000.0 0.0002301898057339713 -0.0012681265361607075
7500000000.0 -0.0012661159271374345 -0.00010516894690226763
7504000000.0 5.272714406601153e-05 0.001304521574638784
7508000000.0 0.001314026303589344 -0.00021047868358436972
7512000000.0 -0.0002854259219020605 -0.0013239511754363775
7516000000.0 -0.0012531544780358672 0.0004932854790240526
7520000000.0 0.0007101569208316505 0.001230508671142161
7524000000.0 0.0012296020286157727 -0.0009634243324398994
7528000000.0 -0.0011691355612128973 -0.0011318522738292813
7532000000.0 -0.0011063420679420233 0.0014266036450862885
7536000000.0 0.0015400751726701856 0.0008605822804383934
7540000000.0 0.0004901688080281019 -0.0019172992324456573
7544000000.0 -0.0020520067773759365 5.0547547289170325e-05
7548000000.0 0.0005943075520917773 0.0019661339465528727
7552000000.0 0.0017570918425917625 -0.0010584770934656262
7556000000.0 -0.0012628439581021667 -0.0014021769165992737
7560000000.0 -0.0009179881308227777 0.0016072698635980487
7564000000.0 0.0015883368905633688 0.00045003899140283465
7568000000.0 0.00010349642252549529 -0.0014839678769931197
7572000000.0 -0.0012654190650209785 0.00020130463235545903
7576000000.0 0.00037531054113060236 0.001127295778132975
7580000000.0 0.0008572390070185065 -0.0004447480896487832
7584000000.0 -0.0004613600031007081 -0.0007937113987281919
7588000000.0 -0.0005581874283961952 0.0005177332204766572
7592000000.0 0.0005568634951487184 0.0005145329632796347
7596000000.0 0.00041047282866202295 -0.0005556560936383903
7600000000.0 -0.0005835851770825684 -0.0003304161655250937
7604000000.0 -0.00020304156350903213 0.0005776644684374332
7608000000.0 0.0005645378842018545 0.00014962350542191416
7612000000.0 0.00012004222662653774 -0.0004827698285225779
7616000000.0 -0.0004929874558001757 -1.0664492037903983e-05
7620000000.0 -2.0804784071515314e-05 0.0004860245680902153
7624000000.0 0.0004394776769913733 -4.990789602743462e-05
7628000000.0 -0.00010707697947509587 -0.00035556370858103037
7632000000.0 -0.0004236557870171964 6.296607170952484e-05
7636000000.0 8.728875400265679e-05 0.00036540624569170177
7640000000.0 0.0004198928945697844 -0.00011213145626243204
7644000000.0 -0.00010249527986161411 -0.00038364456850104034
7648000000.0 -0.0002913583302870393 0.00017165858298540115
7652000000.0 0.0003129480464849621 0.0003082642506342381
7656000000.0 0.0002640729653649032 -0.00031992411823011935
7660000000.0 -0.00031848062644712627 -0.0002449234598316252
7664000000.0 -0.0002776985929813236 0.0002224493509856984
7668000000.0 0.00034187181154266 0.00021854809892829508
7672000000.0 0.0002229471574537456 -0.0003130029363092035
7676000000.0 -0.0003656204789876938 -0.0001966862619156018
7680000000.0 -0.00011279387399554253 0.0003316922520752996
7684000000.0 0.0004302729503251612 7.035001908661798e-05
7688000000.0 0.00012272487219888717 -0.00045880599645897746
7692000000.0 -0.00044685605098493397 -7.087930862326175e-05
7696000000.0 8.353772136615589e-05 0.0004227196623105556
7700000000.0 0.0004440511402208358 -0.00013858723104931414
7704000000.0 -0.00026459366199560463 -0.0004986133426427841
7708000000.0 -0.0004279801214579493 0.0004054664168506861
7712000000.0 0.0005214213742874563 0.0004341810126788914
7716000000.0 0.00022214360069483519 -0.0006142388447187841
7720000000.0 -0.0006069382070563734 -0.00014655044651590288
7724000000.0 -1.7385094906785525e-05 0.0005264331120997667
7728000000.0 0.0004537374770734459 -8.332265861099586e-05
7732000000.0 -0.00013752620725426823 -0.0002999197458848357
7736000000.0 -0.000276552775176242 0.0001595903595443815
7740000000.0 0.00021775324421469122 0.00023752759443596005
7744000000.0 0.0002734680601861328 -0.00019780424190685153
7748000000.0 -0.00017371449212078005 -0.00024392647901549935
7752000000.0 -0.00017360034689772874 0.00026342799537815154
7756000000.0 0.0002743257791735232 0.00012545293429866433
7760000000.0 0.0001961102825589478 -0.00022579052892979234
7764000000.0 -0.00019232957856729627 -0.00011088909377576783
7768000000.0 -8.686942601343617e-05 0.00019153654284309596
7772000000.0 0.00017416173068340868 8.472318586427718e-05
7776000000.0 2.950741327367723e-05 -0.00027266141842119396
7780000000.0 -0.0001972364552784711 -5.9569396398728713e-05
7784000000.0 9.28192002902506e-06 0.00018482745508663356
7788000000.0 0.00013054066221229732 3.3788088330766186e-05
7792000000.0 3.274268965469673e-05 -0.0002149335341528058
7796000000.0 -0.00023109062749426812 -2.5405701308045536e-05
7800000000.0 -6.90142042003572e-06 0.0001650790509302169
7804000000.0 0.00019343174062669277 -4.774334593093954e-05
7808000000.0 -0.0001226962049258873 -0.00027323278482072055
7812000000.0 -0.00024337282229680568 0.00011051179171772674
7816000000.0 0.00010269864287693053 0.00020744760695379227
7820000000.0 0.00013769720681011677 -7.04844351275824e-05
7824000000.0 -0.00011590751819312572 -0.00014685056521557271
7828000000.0 -0.00022874644491821527 0.00015079347940627486
7832000000.0 0.00017774139996618032 0.0002014893980231136
7836000000.0 0.00022485479712486267 -0.00022191698371898383
7840000000.0 -0.00024854554794728756 -0.00020344703807495534
7844000000.0 -0.00022754905512556434 0.00025314706726931036
7848000000.0 0.00024387225857935846 0.00015035347314551473
7852000000.0 0.00018196459859609604 -0.00032561513944528997
7856000000.0 -0.0003618826740421355 -5.374559623305686e-05
7860000000.0 -0.00012482654710765928 0.00043253684998489916
7864000000.0 0.0004752239037770778 2.261102054035291e-06
7868000000.0 -0.00016377889551222324 -0.0004976379568688571
7872000000.0 -0.0005437041982077062 0.0002464247227180749
7876000000.0 0.0004031859280075878 0.0005200650193728507
7880000000.0 0.00044090693700127304 -0.0005654913256876171
7884000000.0 -0.0006512430845759809 -0.00035310478415340185
7888000000.0 -0.00019393592083361 0.000697180861607194
7892000000.0 0.0007324840407818556 -4.1858165786834434e-05
7896000000.0 -0.0001598511153133586 -0.0006870916695334017
7900000000.0 -0.0005414364277385175 0.00024466036120429635
7904000000.0 0.0002975789539050311 0.0004975039046257734
7908000000.0 0.00046588981058448553 -0.0004089536378160119
7912000000.0 -0.00043335522059351206 -0.00034370922367088497
7916000000.0 -0.00024552037939429283 0.0004500411741901189
7920000000.0 0.00048756529577076435 0.00019958177290391177
7924000000.0 0.00013005593791604042 -0.00040146353421732783
7928000000.0 -0.0004880171036347747 -8.214268018491566e-05
7932000000.0 -7.459291373379529e-05 0.00039189765811897814
7936000000.0 0.00044580447138287127 2.05764954444021e-05
7940000000.0 1.9923072613892145e-06 -0.00039433062192983925
7944000000.0 -0.00046260349336080253 8.554950909456238e-05
7948000000.0 0.00012447706831153482 0.00041685704491101205
7952000000.0 0.0003496745484881103 -8.795500616542995e-05
7956000000.0 -0.00015430587518494576 -0.00033908357727341354
7960000000.0 -0.0003546049993019551 0.0002239090099465102
7964000000.0 0.00029739199089817703 0.00033776514464989305
7968000000.0 0.000216064159758389 -0.0002750242711044848
7972000000.0 -0.00031133508309721947 -0.00019402781617827713
7976000000.0 -0.00027248304104432464 0.0004305600596126169
7980000000.0 0.0004052001750096679 0.00026055649504996836
7984000000.0 0.00018283925601281226 -0.00037483469350263476
7988000000.0 -0.0005058320821262896 -0.00020203231542836875
7992000000.0 -0.00010779586591525003 0.0005083712167106569
7996000000.0 0.0005587438936345279 8.033295307541266e-05
8000000000.0 4.983759572496638e-05 -0.0005702992784790695
