! Created with skrf 1.10.0 (http://scikit-rf.org).
# Hz S RI R 50.0 
!freq ReS11 ImS11
!
4000000000.0 0.011651711538434029 0.009061984717845917
4004000000.0 0.007314911112189293 -0.01286393404006958
4008000000.0 -0.013583799824118614 -0.005426270421594381
4012000000.0 -0.0037132548168301582 0.01423218846321106
4016000000.0 0.014753222465515137 0.002043395768851042
4020000000.0 -0.00010778993600979447 -0.015079513192176819
4024000000.0 -0.0152933644130826 0.002328051021322608
4028000000.0 0.00466625951230526 0.014941179193556309
4032000000.0 0.014253352768719196 -0.006818488705903292
4036000000.0 -0.008897940628230572 -0.012860999442636967
4040000000.0 -0.01137405727058649 0.010741213336586952
4044000000.0 0.012226579710841179 0.009776858612895012
4048000000.0 0.00783662497997284 -0.013513312675058842
4052000000.0 -0.014933501370251179 -0.0057522631250321865
4056000000.0 -0.003297219518572092 0.015572406351566315
4060000000.0 0.01586952805519104 0.0009927749633789062
4064000000.0 -0.0015502084279432893 -0.01564931496977806
4068000000.0 -0.015113879926502705 0.003768080845475197
4072000000.0 0.005730309523642063 0.014015810564160347
4076000000.0 0.012909709475934505 -0.007706319913268089
4080000000.0 -0.009627865627408028 -0.011690497398376465
4084000000.0 -0.010253418236970901 0.011007729917764664
4088000000.0 0.012142577208578587 0.008375509642064571
4092000000.0 0.006504248362034559 -0.013265394605696201
4096000000.0 -0.013879126869142056 -0.004348408430814743
4100000000.0 -0.0024577444419264793 0.014199985191226006
4104000000.0 0.014354334212839603 0.00027235638117417693
4108000000.0 -0.0016775669064372778 -0.0138110825791955
4112000000.0 -0.01328701339662075 0.00347967934794724
4116000000.0 0.005148733966052532 0.012660716660320759
4120000000.0 0.011606698855757713 -0.006821943446993828
4124000000.0 -0.008448831737041473 -0.01057761162519455
4128000000.0 -0.009361633099615574 0.009632143191993237
4132000000.0 0.01081101968884468 0.007723855786025524
4136000000.0 0.006153705529868603 -0.01142488606274128
4140000000.0 -0.012076380662620068 -0.00434826361015439
4144000000.0 -0.0028517860919237137 0.012289014644920826
4148000000.0 0.012353131547570229 0.0012550648534670472
4152000000.0 -0.00023339377366937697 -0.012575332075357437
4156000000.0 -0.012694713659584522 0.001615764806047082
4160000000.0 0.003328286111354828 0.012331811711192131
4164000000.0 0.011934567242860794 -0.004861478693783283
4168000000.0 -0.006659955717623234 -0.01123038213700056
4172000000.0 -0.009978694841265678 0.00795888714492321
4176000000.0 0.00935050193220377 0.008937736041843891
4180000000.0 0.00756632536649704 -0.010476515628397465
4184000000.0 -0.011429037898778915 -0.006162887439131737
4188000000.0 -0.004418345633894205 0.01214408315718174
4192000000.0 0.012763072736561298 0.002783052856102586
4196000000.0 0.0012379708932712674 -0.013087413273751736
4200000000.0 -0.013354523107409477 0.0008007701835595071
4204000000.0 0.002678949385881424 0.013503458350896835
4208000000.0 0.012918306514620781 -0.005005551502108574
4212000000.0 -0.006826587487012148 -0.011847705580294132
4216000000.0 -0.010581065900623798 0.008447033353149891
4220000000.0 0.009779478423297405 0.009422320872545242
4224000000.0 0.008057615719735622 -0.011112459003925323
4228000000.0 -0.01215766929090023 -0.006311290897428989
4232000000.0 -0.00461036991328001 0.013336166739463806
4236000000.0 0.013888020999729633 0.002586575923487544
4240000000.0 0.0002594028483144939 -0.014042090624570847
4244000000.0 -0.014121847227215767 0.0019518862245604396
4248000000.0 0.003927645739167929 0.013467183336615562
4252000000.0 0.012577195651829243 -0.006069384515285492
4256000000.0 -0.007633779663592577 -0.011431360617280006
4260000000.0 -0.0100707421079278 0.0094144931063056
4264000000.0 0.010438576340675354 0.00848279520869255
4268000000.0 0.006877213716506958 -0.011345614679157734
4272000000.0 -0.012155462056398392 -0.005093349609524012
4276000000.0 -0.003140451852232218 0.012693624012172222
4280000000.0 0.012738438323140144 0.0013292181538417935
4284000000.0 -0.0006296119536273181 -0.012633123435080051
4288000000.0 -0.01231023482978344 0.002375099342316389
4292000000.0 0.003984266892075539 0.011386711150407791
4296000000.0 0.010644717141985893 -0.0054114824160933495
4300000000.0 -0.006653223652392626 -0.009808401577174664
4304000000.0 -0.00859618466347456 0.00760962488129735
4308000000.0 0.008416236378252506 0.0074839466251432896
4312000000.0 0.006282730493694544 -0.00933081191033125
4316000000.0 -0.010259055532515049 -0.004992302507162094
4320000000.0 -0.003763147396966815 0.010906284675002098
4324000000.0 0.011129272170364857 0.0023407551925629377
4328000000.0 0.0008410632144659758 -0.011121246963739395
4332000000.0 -0.011037143878638744 0.00036547743366099894
4336000000.0 0.0017878885846585035 0.010974280536174774
4340000000.0 0.010727751068770885 -0.003115012776106596
4344000000.0 -0.004548504017293453 -0.010355810634791851
4348000000.0 -0.009573183953762054 0.005943584721535444
4352000000.0 0.0074971867725253105 0.00864416640251875
4356000000.0 0.0077118766494095325 -0.008224590681493282
4360000000.0 -0.009135354310274124 -0.006574547849595547
4364000000.0 -0.005502683110535145 0.01006376650184393
4368000000.0 0.011052862741053104 0.0043039326556026936
4372000000.0 0.0028562163934111595 -0.011871430091559887
4376000000.0 -0.01244417019188404 -0.001073234248906374
4380000000.0 0.0008605812909081578 0.012598592787981033
4384000000.0 0.012521636672317982 -0.002513858489692211
4388000000.0 -0.004046029876917601 -0.012243413366377354
4392000000.0 -0.011723714880645275 0.006079514976590872
4396000000.0 0.007905611768364906 0.011129884049296379
4400000000.0 0.009966421872377396 -0.010100196115672588
4404000000.0 -0.011643997393548489 -0.008111933246254921
4408000000.0 -0.0061891041696071625 0.012879493646323681
4412000000.0 0.013806138187646866 0.004045245237648487
4416000000.0 0.0016881546471267939 -0.01419899519532919
4420000000.0 -0.01422671414911747 0.00040237489156425
4424000000.0 0.002994519891217351 0.014064641669392586
4428000000.0 0.013038385659456253 -0.004999442026019096
4432000000.0 -0.007228372152894735 -0.01190024521201849
4436000000.0 -0.010676036588847637 0.008784080855548382
4440000000.0 0.010230216197669506 0.008887085132300854
4444000000.0 0.006977567449212074 -0.011290987953543663
4448000000.0 -0.011753621511161327 -0.005151534918695688
4452000000.0 -0.003464600071310997 0.01241284515708685
4456000000.0 0.012696531601250172 0.0012906595366075635
4460000000.0 -0.0004529757425189018 -0.012460862286388874
4464000000.0 -0.011970872059464455 0.002413357375189662
4468000000.0 0.004184292163699865 0.011217753402888775
4472000000.0 0.010273377411067486 -0.005384467542171478
4476000000.0 -0.006825757212936878 -0.009250419214367867
4480000000.0 -0.008272686041891575 0.007688804529607296
4484000000.0 0.00849613081663847 0.0069816261529922485
4488000000.0 0.005964050069451332 -0.009359434247016907
4492000000.0 -0.010009287856519222 -0.004555491730570793
4496000000.0 -0.0030148921068757772 0.010330160148441792
4500000000.0 0.010474267415702343 0.0017555007943883538
4504000000.0 0.00018768383597489446 -0.010241328738629818
4508000000.0 -0.010271938517689705 0.0010544514516368508
4512000000.0 0.0021623391658067703 0.010137047618627548
4516000000.0 0.009805985726416111 -0.003252890659496188
4520000000.0 -0.004561190027743578 -0.00952987652271986
4524000000.0 -0.00898144580423832 0.005812026560306549
4528000000.0 0.007309595122933388 0.007785856258124113
4532000000.0 0.00680044200271368 -0.008376208133995533
4536000000.0 -0.009153582155704498 -0.005920916795730591
4540000000.0 -0.004457863513380289 0.009710773825645447
4544000000.0 0.01036001555621624 0.0032105708960443735
4548000000.0 0.00176176184322685 -0.010735920630395412
4552000000.0 -0.010969916358590126 -0.0003792119096033275
4556000000.0 0.0009106166544370353 0.011205019429326057
4560000000.0 0.011247025802731514 -0.0027277483604848385
4564000000.0 -0.004083804786205292 -0.011042794212698936
4568000000.0 -0.010585914365947247 0.006056895013898611
4572000000.0 0.00777342077344656 0.009394089691340923
4576000000.0 0.008152796886861324 -0.009047994390130043
4580000000.0 -0.010309578850865364 -0.006894056219607592
4584000000.0 -0.005140123888850212 0.011398241855204105
4588000000.0 0.012203283607959747 0.0036470345221459866
4592000000.0 0.001596992602571845 -0.012948676943778992
4596000000.0 -0.013050411827862263 0.0003832961665466428
4600000000.0 0.002779100090265274 0.012959825806319714
4604000000.0 0.012255904264748096 -0.005002547521144152
4608000000.0 -0.00708957901224494 -0.011302473954856396
4612000000.0 -0.009713323786854744 0.008837325498461723
4616000000.0 0.01038393471390009 0.007861620746552944
4620000000.0 0.005934554152190685 -0.011473103426396847
4624000000.0 -0.012028983794152737 -0.003721536137163639
4628000000.0 -0.0016717633698135614 0.011917147785425186
4632000000.0 0.011625976301729679 3.3863983844639733e-05
4636000000.0 -0.0017252098768949509 -0.011283044703304768
4640000000.0 -0.010568269528448582 0.003237001597881317
4644000000.0 0.004584434442222118 0.009526926092803478
4648000000.0 0.0086525809019804 -0.00572307500988245
4652000000.0 -0.0066430941224098206 -0.007386058568954468
4656000000.0 -0.006371958646923304 0.007300889119505882
4660000000.0 0.00777750089764595 0.005247277673333883
4664000000.0 0.004383577033877373 -0.008146627806127071
4668000000.0 -0.00866408459842205 -0.003282521152868867
4672000000.0 -0.001954271225258708 0.008926470763981342
4676000000.0 0.008858122862875462 0.0006769716856069863
4680000000.0 -0.0004540385853033513 -0.008817007765173912
4684000000.0 -0.008619613945484161 0.001497210469096899
4688000000.0 0.002504628384485841 0.008019570261240005
4692000000.0 0.007713473867624998 -0.0034638280048966408
4696000000.0 -0.0043527367524802685 -0.007173797581344843
4700000000.0 -0.006660484708845615 0.005090047605335712
4704000000.0 0.00599651737138629 0.00598654942587018
4708000000.0 0.005250833462923765 -0.006905975751578808
4712000000.0 -0.0074743954464793205 -0.0043074204586446285
4716000000.0 -0.0033134534023702145 0.00794663093984127
4720000000.0 0.008212382905185223 0.002115597017109394
4724000000.0 0.0012990126851946115 -0.008437548764050007
4728000000.0 -0.0086646294221282 -0.0003215050674043596
4732000000.0 0.0009393874206580222 0.008985914289951324
4736000000.0 0.00884370319545269 -0.0021587542723864317
4740000000.0 -0.0033685786183923483 -0.00845903716981411
4744000000.0 -0.008208059705793858 0.004622191656380892
4748000000.0 0.005432220175862312 0.007557999342679977
4752000000.0 0.006982231047004461 -0.006643450818955898
4756000000.0 -0.007779491133987904 -0.006013548467308283
4760000000.0 -0.004977081436663866 0.008963839150965214
4764000000.0 0.010045540519058704 0.0037860446609556675
4768000000.0 0.001946267206221819 -0.010553326457738876
4772000000.0 -0.010760601609945297 -9.536038851365447e-05
4776000000.0 0.0017076137010008097 0.010838665999472141
4780000000.0 0.01041971705853939 -0.0035201264545321465
4784000000.0 -0.005305724684149027 -0.009771278128027916
4788000000.0 -0.00869982410222292 0.006825217977166176
4792000000.0 0.0081939697265625 0.007334165740758181
4796000000.0 0.005666090175509453 -0.009123960509896278
4800000000.0 -0.009829276241362095 -0.004156955983489752
4804000000.0 -0.002599542262032628 0.010179143399000168
4808000000.0 0.010094044730067253 0.0008711947593837976
4812000000.0 -0.0005944213480688632 -0.009932540357112885
4816000000.0 -0.009480955079197884 0.0021683357190340757
4820000000.0 0.0035139289684593678 0.00889310147613287
4824000000.0 0.008138388395309448 -0.004728533793240786
4828000000.0 -0.005811733193695545 -0.007089289836585522
4832000000.0 -0.00630202004685998 0.006672908551990986
4836000000.0 0.007357568480074406 0.0050180405378341675
4840000000.0 0.003804931417107582 -0.007758133579045534
4844000000.0 -0.00792847853153944 -0.0028554631862789392
4848000000.0 -0.0017562989378347993 0.007999320514500141
4852000000.0 0.00806193146854639 0.0005007979925721884
4856000000.0 -0.0004956535995006561 -0.007893847301602364
4860000000.0 -0.0075693498365581036 0.001409274758771062
4864000000.0 0.0023137684911489487 0.007373057305812836
4868000000.0 0.006972952745854855 -0.003231542417779565
4872000000.0 -0.004053771961480379 -0.006500715855509043
4876000000.0 -0.005971658509224653 0.0048123677261173725
4880000000.0 0.005439772270619869 0.005210591945797205
4884000000.0 0.004529316909611225 -0.006045918446034193
4888000000.0 -0.006488135550171137 -0.0035457401536405087
4892000000.0 -0.0028438095469027758 0.00696125952526927
4896000000.0 0.007245649117976427 0.001987743889912963
4900000000.0 0.0009186825482174754 -0.007491161581128836
4904000000.0 -0.0077158915810287 -5.640333620249294e-05
4908000000.0 0.0009475337574258447 0.007634027395397425
4912000000.0 0.00749237323179841 -0.0019196365028619766
4916000000.0 -0.0028047901578247547 -0.007083236705511808
4920000000.0 -0.006908816285431385 0.003763727843761444
4924000000.0 0.004742874763906002 0.006545277778059244
4928000000.0 0.0059405104257166386 -0.005730780307203531
4932000000.0 -0.006584095302969217 -0.005091833416372538
4936000000.0 -0.004108126740902662 0.0073587941005826
4940000000.0 0.007855074480175972 0.00303559098392725
4944000000.0 0.0018754947232082486 -0.008315961807966232
4948000000.0 -0.008641965687274933 -0.0007480309577658772
4952000000.0 0.000542867579497397 0.008870963007211685
4956000000.0 0.00877167098224163 -0.0018300054362043738
4960000000.0 -0.003191748633980751 -0.008577330969274044
4964000000.0 -0.008248231373727322 0.0044837030582129955
4968000000.0 0.005897028371691704 0.00740743987262249
4972000000.0 0.006469446700066328 -0.0070216041058301926
4976000000.0 -0.008115183562040329 -0.005251844879239798
4980000000.0 -0.0037069404497742653 0.008950697258114815
4984000000.0 0.009388154372572899 0.0021574071142822504
4988000000.0 0.0006289655575528741 -0.009511890821158886
4992000000.0 -0.009324036538600922 0.0008298301254399121
4996000000.0 0.002215529326349497 0.009087485261261463
5000000000.0 0.008359046652913094 -0.0036264522932469845
5004000000.0 -0.004861138295382261 -0.00779570359736681
5008000000.0 -0.006699703633785248 0.005989496596157551
5012000000.0 0.006682038772851229 0.005778156220912933
5016000000.0 0.0045702895149588585 -0.0073772212490439415
5020000000.0 -0.007868793793022633 -0.0032663214951753616
5024000000.0 -0.0020374972373247147 0.007938203401863575
5028000000.0 0.00804478581994772 0.000941350357607007
5032000000.0 -0.0001389092649333179 -0.007895390503108501
5036000000.0 -0.007563036400824785 0.0012387196766212583
5040000000.0 0.0021558101288974285 0.007357459515333176
5044000000.0 0.006962282583117485 -0.0031401163432747126
5048000000.0 -0.004191286861896515 -0.006114605348557234
5052000000.0 -0.00551577378064394 0.004842972848564386
5056000000.0 0.005364942364394665 0.004986691754311323
5060000000.0 0.0038998881354928017 -0.005959975067526102
5064000000.0 -0.006356299389153719 -0.003193262033164501
5068000000.0 -0.002259033964946866 0.00652410788461566
5072000000.0 0.006728176958858967 0.0015543490881100297
5076000000.0 0.0006977275479584932 -0.006934830453246832
5080000000.0 -0.007098539732396603 0.00021913356613367796
5084000000.0 0.001099006156437099 0.006849803030490875
5088000000.0 0.006664660759270191 -0.0019258976681157947
5092000000.0 -0.002808383898809552 -0.006276591680943966
5096000000.0 -0.005836212541908026 0.003533821552991867
5100000000.0 0.004238163586705923 0.005382339935749769
5104000000.0 0.004663535393774509 -0.00530310207977891
5108000000.0 -0.005588138941675425 -0.004279515706002712
5112000000.0 -0.003427174175158143 0.006248774006962776
5116000000.0 0.006590597797185183 0.0025285575538873672
5120000000.0 0.0016120184445753694 -0.006958187557756901
5124000000.0 -0.007235162891447544 -0.0007853005663491786
5128000000.0 0.0002779101487249136 0.007460164371877909
5132000000.0 0.007385550066828728 -0.0014711156254634261
5136000000.0 -0.0024253935553133488 -0.007315239403396845
5140000000.0 -0.0066465167328715324 0.0034373372327536345
5144000000.0 0.0045108129270374775 0.006304074078798294
5148000000.0 0.005577924195677042 -0.005433684214949608
5152000000.0 -0.006127343513071537 -0.004810175858438015
5156000000.0 -0.003890414023771882 0.006928240414708853
5160000000.0 0.00749596394598484 0.0026815379969775677
5164000000.0 0.0017077550292015076 -0.007709903176873922
5168000000.0 -0.008039655163884163 -0.0005680373287759721
5172000000.0 0.0006744296406395733 0.007985185831785202
5176000000.0 0.007770558353513479 -0.0019346954068168998
5180000000.0 -0.003146985312923789 -0.00723653007298708
5184000000.0 -0.006535676307976246 0.004163558129221201
5188000000.0 0.005164376925677061 0.005916018970310688
5192000000.0 0.005141230765730143 -0.0057681165635585785
5196000000.0 -0.0067428648471832275 -0.004375902935862541
5200000000.0 -0.00315809715539217 0.007061339914798737
5204000000.0 0.007518452126532793 0.001973116770386696
5208000000.0 0.0007848345558159053 -0.007661974057555199
5212000000.0 -0.0075155035592615604 0.0004138981457799673
5216000000.0 0.0013365073828026652 0.007294812239706516
5220000000.0 0.0071496074087917805 -0.0022983781527727842
5224000000.0 -0.0033873384818434715 -0.00647070724517107
5228000000.0 -0.00599901657551527 0.004147855099290609
5232000000.0 0.00478880712762475 0.005081820767372847
5236000000.0 0.00425694789737463 -0.005437730811536312
5240000000.0 -0.005729326978325844 -0.0034845403861254454
5244000000.0 -0.0026545575819909573 0.006175675895065069
5248000000.0 0.006363873369991779 0.0018355853389948606
5252000000.0 0.001021748990751803 -0.006456281058490276
5256000000.0 -0.0063865608535707 -0.00011505188012961298
5260000000.0 0.0006868813652545214 0.006477838382124901
5264000000.0 0.006117539014667273 -0.0015743866097182035
5268000000.0 -0.0022113414015620947 -0.005887978710234165
5272000000.0 -0.005425903480499983 0.0029195593670010567
5276000000.0 0.003584920195862651 0.004948889371007681
5280000000.0 0.00433275057002902 -0.004179679788649082
5284000000.0 -0.004614719655364752 -0.004096145275980234
5288000000.0 -0.0033649124670773745 0.0052383095026016235
5292000000.0 0.005691949278116226 0.0026350608095526695
5296000000.0 0.0018675305182114244 -0.005876434966921806
5300000000.0 -0.006023408845067024 -0.0012186983367428184
5304000000.0 -0.0003690324374474585 0.006159537471830845
5308000000.0 0.006228525657206774 -0.0003899953735526651
5312000000.0 -0.0011620973236858845 -0.006096644327044487
5316000000.0 -0.006191364023834467 0.0019256450468674302
5320000000.0 0.0028106803074479103 0.005877250339835882
5324000000.0 0.005482553504407406 -0.0035464579705148935
5328000000.0 -0.004374449606984854 -0.005069382954388857
5332000000.0 -0.004529642406851053 0.004942453932017088
5336000000.0 0.005837598349899054 0.003982326481491327
5340000000.0 0.0032465376425534487 -0.006300508975982666
5344000000.0 -0.006920590531080961 -0.0023161289282143116
5348000000.0 -0.0011955405352637172 0.007415344938635826
5352000000.0 0.007500316482037306 2.5847099095699377e-05
5356000000.0 -0.0011922818375751376 -0.007534611038863659
5360000000.0 -0.007395647466182709 0.0024746081326156855
5364000000.0 0.0035947931464761496 0.0070667993277311325
5368000000.0 0.006442758720368147 -0.004684519488364458
5372000000.0 -0.005811776500195265 -0.005471337120980024
5376000000.0 -0.004807727877050638 0.00648613041266799
5380000000.0 0.007054841611534357 0.003560908604413271
5384000000.0 0.0024048136547207832 -0.007594605442136526
5388000000.0 -0.007872367277741432 -0.0010185277787968516
5392000000.0 0.00015680160140618682 0.00773097388446331
5396000000.0 0.007501647807657719 -0.0013587960274890065
5400000000.0 -0.0023439847864210606 -0.007097836118191481
5404000000.0 -0.006634674500674009 0.0034426001366227865
5408000000.0 0.0043050008825957775 0.005923121236264706
5412000000.0 0.005230535287410021 -0.005223543383181095
5416000000.0 -0.005787195172160864 -0.004305228125303984
5420000000.0 -0.0032407487742602825 0.0062710256315767765
5424000000.0 0.006493061780929565 0.0022376736160367727
5428000000.0 0.0013691284693777561 -0.0064987726509571075
5432000000.0 -0.0065147364512085915 -0.0003969683893956244
5436000000.0 0.0004704581224359572 0.006380023900419474
5440000000.0 0.006107997614890337 -0.0012057253625243902
5444000000.0 -0.0021004900336265564 -0.005689193960279226
5448000000.0 -0.005346635356545448 0.0028045307844877243
5452000000.0 0.0034581308718770742 0.004898562096059322
5456000000.0 0.004339019302278757 -0.004140453413128853
5460000000.0 -0.004563586320728064 -0.0038670620415359735
5464000000.0 -0.0032709194347262383 0.004888460971415043
5468000000.0 0.005169350653886795 0.0026836751494556665
5472000000.0 0.0021299102809280157 -0.005435959901660681
5476000000.0 -0.005776810925453901 -0.0014302749186754227
5480000000.0 -0.0006517245201393962 0.00595269026234746
5484000000.0 0.006113394629210234 -0.00019417901057749987
5488000000.0 -0.0009778246749192476 -0.005968161858618259
5492000000.0 -0.00588550791144371 0.0016812680987641215
5496000000.0 0.0024454942904412746 0.005622093100100756
5500000000.0 0.005343893077224493 -0.0032502510584890842
5504000000.0 -0.00400393595919013 -0.004959222860634327
5508000000.0 -0.00437077134847641 0.004746660124510527
5512000000.0 0.005277566146105528 0.0037792776711285114
5516000000.0 0.0028888885863125324 -0.005894487723708153
5520000000.0 -0.006297658197581768 -0.0021272802259773016
5524000000.0 -0.0010975573677569628 0.006469901651144028
5528000000.0 0.006730631459504366 0.00019070558482781053
5532000000.0 -0.000751473184209317 -0.006797647103667259
5536000000.0 -0.00666116364300251 0.0017943369457498193
5540000000.0 0.002745087957009673 0.006332474760711193
5544000000.0 0.005815182346850634 -0.003799350466579199
5548000000.0 -0.004570641089230776 -0.005124432034790516
5552000000.0 -0.004545438569039106 0.005203722510486841
5556000000.0 0.005916050169616938 0.003636188805103302
5560000000.0 0.002818680601194501 -0.0064282286912202835
5564000000.0 -0.006963985972106457 -0.0017175445100292563
5568000000.0 -0.0003729217278305441 0.006940564606338739
5572000000.0 0.006847413256764412 -0.0005652871332131326
5576000000.0 -0.0015476809348911047 -0.006586196832358837
5580000000.0 -0.006153956521302462 0.002496183617040515
5584000000.0 0.00322717591188848 0.005709318444132805
5588000000.0 0.005147646646946669 -0.0042009297758340836
5592000000.0 -0.004920875653624535 -0.004369255620986223
5596000000.0 -0.003378695109859109 0.005389759317040443
5600000000.0 0.005612516310065985 0.0023186737671494484
5604000000.0 0.001562873600050807 -0.0055067711509764194
5608000000.0 -0.005623843986541033 -0.0008677433361299336
5612000000.0 -0.0003120744077023119 0.005682423710823059
5616000000.0 0.005629608407616615 -0.00040389460627920926
5620000000.0 -0.0012623151997104287 -0.005550657398998737
5624000000.0 -0.005192864220589399 0.0019405510975047946
5628000000.0 0.002547438722103834 0.004782140254974365
5632000000.0 0.004373927600681782 -0.0030643297359347343
5636000000.0 -0.00349925784394145 -0.004067355301231146
5640000000.0 -0.0036462179850786924 0.003916923888027668
5644000000.0 0.004437003750354052 0.003078077919781208
5648000000.0 0.0025104708038270473 -0.004773344378918409
5652000000.0 -0.005117236170917749 -0.0018725362606346607
5656000000.0 -0.0012149998219683766 0.00521543063223362
5660000000.0 0.005363713018596172 0.0004446108068805188
5664000000.0 -0.00013596922508440912 -0.005339703988283873
5668000000.0 -0.005299780052155256 0.0009102454641833901
5672000000.0 0.0015928895445540547 0.005354170687496662
5676000000.0 0.005150905344635248 -0.002360467566177249
5680000000.0 -0.0028879912570118904 -0.00474784430116415
5684000000.0 -0.004377169068902731 0.0036572020035237074
5688000000.0 0.004174841567873955 0.0037224122788757086
5692000000.0 0.0031964716035872698 -0.004817933775484562
5696000000.0 -0.005101748276501894 -0.0027853588107973337
5700000000.0 -0.0019215194042772055 0.005583327729254961
5704000000.0 0.006106700748205185 0.0010687236208468676
5708000000.0 0.00025071483105421066 -0.006013044156134129
5712000000.0 -0.006101591978222132 0.0007422800408676267
5716000000.0 0.0014293421991169453 0.005867898464202881
5720000000.0 0.00595849147066474 -0.002400736091658473
5724000000.0 -0.0031356115359812975 -0.005640746559947729
5728000000.0 -0.0052630715072155 0.004267478361725807
5732000000.0 0.005042721051722765 0.004382315091788769
5736000000.0 0.0033705325331538916 -0.005776671227067709
5740000000.0 -0.0060498714447021484 -0.002414402784779668
5744000000.0 -0.0014393131714314222 0.006357869133353233
5748000000.0 0.006342505104839802 0.0005461317487061024
5752000000.0 -0.00035343976924195886 -0.006520738359540701
5756000000.0 -0.006289538461714983 0.0015532545512542129
5760000000.0 0.0024940394796431065 0.005972978658974171
5764000000.0 0.005196407437324524 -0.003306891303509474
5768000000.0 -0.0038353290874511003 -0.004751764237880707
5772000000.0 -0.004082936327904463 0.004374764859676361
5776000000.0 0.004999676253646612 0.0035737897269427776
5780000000.0 0.0026580295525491238 -0.005419112276285887
5784000000.0 -0.005597075447440147 -0.0019232610939070582
5788000000.0 -0.000983029487542808 0.005758486222475767
5792000000.0 0.005775377620011568 0.000313944328809157
5796000000.0 -0.0006007645279169083 -0.005768678616732359
5800000000.0 -0.0054449657909572124 0.0013111454900354147
5804000000.0 0.0021713501773774624 0.005138545762747526
5808000000.0 0.0048355525359511375 -0.0026003154926002026
5812000000.0 -0.003339106449857354 -0.004391106311231852
5816000000.0 -0.003848413238301873 0.0038070736918598413
5820000000.0 0.004203795921057463 0.0033458657562732697
5824000000.0 0.002671599155291915 -0.0045540109276771545
5828000000.0 -0.004935023374855518 -0.002090388908982277
5832000000.0 -0.0014250684762373567 0.005149534437805414
5836000000.0 0.005378116387873888 0.0005825121770612895
5840000000.0 2.6230702133034356e-05 -0.005415194667875767
5844000000.0 -0.005257260520011187 0.0008786244434304535
5848000000.0 0.0016582213575020432 0.0050283875316381454
5852000000.0 0.004786236677318811 -0.0022970172576606274
5856000000.0 -0.002857749117538333 -0.004515513777732849
5860000000.0 -0.004166940692812204 0.0033880441915243864
5864000000.0 0.003810577094554901 0.0037364501040428877
5868000000.0 0.003199121216312051 -0.004503774456679821
5872000000.0 -0.004763201344758272 -0.002431318862363696
5876000000.0 -0.0018658805638551712 0.005009799730032682
5880000000.0 0.00510676484555006 0.0010761540615931153
5884000000.0 0.0004180248943157494 -0.005580874625593424
5888000000.0 -0.005667639896273613 0.00047461516805924475
5892000000.0 0.0011436366476118565 0.005423565860837698
5896000000.0 0.00523802824318409 -0.0019050831906497478
5900000000.0 -0.002700172131881118 -0.005011328961700201
5904000000.0 -0.0045898123644292355 0.003324032062664628
5908000000.0 0.004034330137073994 0.004233685787767172
5912000000.0 0.0035289458464831114 -0.004745797254145145
5916000000.0 -0.005202273838222027 -0.0027539210859686136
5920000000.0 -0.0020278096199035645 0.005653135012835264
5924000000.0 0.005886394064873457 0.0011087653692811728
5928000000.0 0.00023015012266114354 -0.005989628843963146
5932000000.0 -0.006091569550335407 0.0006887186318635941
5936000000.0 0.0016580966766923666 0.005909767001867294
5940000000.0 0.005483001004904509 -0.0026091933250427246
5944000000.0 -0.0033021632116287947 -0.004955579061061144
5948000000.0 -0.004284844733774662 0.004229487851262093
5952000000.0 0.004751097410917282 0.0036080549471080303
5956000000.0 0.0028277591336518526 -0.005110094789415598
5960000000.0 -0.005529483780264854 -0.002114904345944524
5964000000.0 -0.0011825138935819268 0.005555339623242617
5968000000.0 0.005718547850847244 0.0005212376709096134
5972000000.0 -0.0005525717861019075 -0.0056166197173297405
5976000000.0 -0.005222257226705551 0.0013784128241240978
5980000000.0 0.0020844151731580496 0.004947836510837078
5984000000.0 0.004527983255684376 -0.002702252473682165
5988000000.0 -0.00308074988424778 -0.004065716173499823
5992000000.0 -0.0035869842395186424 0.003700143890455365
5996000000.0 0.0040854159742593765 0.003020633477717638
6000000000.0 0.0022600737866014242 -0.004463206045329571
6004000000.0 -0.004574520513415337 -0.0016801647143438458
6008000000.0 -0.0009176629246212542 0.004609593190252781
6012000000.0 0.004768425598740578 0.0003069587692152709
6016000000.0 -0.00036974757676944137 -0.004709748085588217
6020000000.0 -0.004651633556932211 0.0009721264359541237
6024000000.0 0.001504985149949789 0.0043325587175786495
6028000000.0 0.004096652381122112 -0.0020303709898144007
6032000000.0 -0.0026190823409706354 -0.003672174410894513
6036000000.0 -0.003366466611623764 0.0029597559478133917
6040000000.0 0.003424982773140073 0.0029497575014829636
6044000000.0 0.0024062166921794415 -0.003743033157661557
6048000000.0 -0.004018829669803381 -0.0020424621179699898
6052000000.0 -0.0015936916461214423 0.00431030010804534
6056000000.0 0.004401427693665028 0.0008991014328785241
6060000000.0 0.00041176294325850904 -0.0045760697685182095
6064000000.0 -0.004607731476426125 0.00025111486320383847
6068000000.0 0.0008325153612531722 0.004420552868396044
6072000000.0 0.004452732391655445 -0.0013802247121930122
6076000000.0 -0.0020061139948666096 -0.004224706441164017
6080000000.0 -0.004022871609777212 0.0025492291897535324
6084000000.0 0.0032139206305146217 0.0037105598021298647
6088000000.0 0.0031539127230644226 -0.003882949473336339
6092000000.0 -0.004338911734521389 -0.0025710654444992542
6096000000.0 -0.0019362184684723616 0.004896157421171665
6100000000.0 0.005058135371655226 0.001111441059038043
6104000000.0 0.00034964451333507895 -0.005097614601254463
6108000000.0 -0.005417750682681799 0.0004394410934764892
6112000000.0 0.0013349414803087711 0.00509265623986721
6116000000.0 0.004833099897950888 -0.0019661197438836098
6120000000.0 -0.0027652450371533632 -0.004482767544686794
6124000000.0 -0.003948771860450506 0.0035368287935853004
6128000000.0 0.004001704975962639 0.0033286421094089746
6132000000.0 0.0026017308700829744 -0.004335046745836735
6136000000.0 -0.004680972546339035 -0.0018618738977238536
6140000000.0 -0.001121705980040133 0.004786379169672728
6144000000.0 0.0048559377901256084 0.0005443926784209907
6148000000.0 -0.0002252566919196397 -0.004852739628404379
6152000000.0 -0.004746262915432453 0.0009840673301368952
6156000000.0 0.0015201856149360538 0.004575708415359259
6160000000.0 0.004147151485085487 -0.0021846583113074303
6164000000.0 -0.002703435020521283 -0.0037762741558253765
6168000000.0 -0.00323242275044322 0.0031792421359568834
6172000000.0 0.0035484142135828733 0.002691669622436166
6176000000.0 0.002227224875241518 -0.0037606924306601286
6180000000.0 -0.004051813390105963 -0.001728815259411931
6184000000.0 -0.0010759782744571567 0.0041890875436365604
6188000000.0 0.004297190345823765 0.0006226935656741261
6192000000.0 -2.7555473934626207e-05 -0.0042149717919528484
6196000000.0 -0.00407137256115675 0.0006093786796554923
6200000000.0 0.0010350261582061648 0.003976715728640556
6204000000.0 0.00387572986073792 -0.0016322931041941047
6208000000.0 -0.002000497654080391 -0.0034670617897063494
6212000000.0 -0.0032303882762789726 0.002423694124445319
6216000000.0 0.00290612131357193 0.0028990632854402065
6220000000.0 0.0025414295960217714 -0.003205707296729088
6224000000.0 -0.003586436156183481 -0.002035711193457246
6228000000.0 -0.0016575478948652744 0.0038605451118201017
6232000000.0 0.003968293312937021 0.0011559870326891541
6236000000.0 0.00044576849904842675 -0.00428648479282856
6240000000.0 -0.004325291607528925 4.3222473323112354e-05
6244000000.0 0.0005715372390113771 0.004210540093481541
6248000000.0 0.0042382897809147835 -0.0011617280542850494
6252000000.0 -0.0018371976912021637 -0.0040802666917443275
6256000000.0 -0.003842149395495653 0.002437843708321452
6260000000.0 0.0029862665105611086 0.0036003291606903076
6264000000.0 0.003047339851036668 -0.0035590145271271467
6268000000.0 -0.004148285835981369 -0.0024198966566473246
6272000000.0 -0.0018203125800937414 0.004352533258497715
6276000000.0 0.004638088867068291 0.0011223661713302135
6280000000.0 0.00039024095167405903 -0.004853489808738232
6284000000.0 -0.004866718780249357 0.0004976694472134113
6288000000.0 0.0011658709263429046 0.004708100110292435
6292000000.0 0.004449258092790842 -0.0019602328538894653
6296000000.0 -0.0025416004937142134 -0.004018949344754219
6300000000.0 -0.0036262073554098606 0.003207941772416234
6304000000.0 0.0037585077807307243 0.0029831358697265387
6308000000.0 0.002358110621571541 -0.004100280813872814
6312000000.0 -0.004324427340179682 -0.0015767808072268963
6316000000.0 -0.0008933588396757841 0.004497637040913105
6320000000.0 0.004409121815115213 0.00022201419051270932
6324000000.0 -0.00048408465227112174 -0.004351981915533543
6328000000.0 -0.004257573746144772 0.0010404529748484492
6332000000.0 0.0015324940904974937 0.003959690686315298
6336000000.0 0.0035228803753852844 -0.002107591601088643
6340000000.0 -0.0026051911991089582 -0.0031499373726546764
6344000000.0 -0.0026540944818407297 0.0029131153132766485
6348000000.0 0.0031888477969914675 0.002208642428740859
6352000000.0 0.001738271676003933 -0.003328620921820402
6356000000.0 -0.003507379675284028 -0.0012222708901390433
6360000000.0 -0.0008791864383965731 0.003627186641097069
6364000000.0 0.0038418942131102085 0.0003331008483655751
6368000000.0 -0.00018759285740088671 -0.0035841758362948895
6372000000.0 -0.0035745003260672092 0.000639620702713728
6376000000.0 0.0010574891930446029 0.003334207460284233
6380000000.0 0.0031237045768648386 -0.0014346583047881722
6384000000.0 -0.001873631146736443 -0.0030369795858860016
6388000000.0 -0.002810604637488723 0.002204407239332795
6392000000.0 0.0025374542456120253 0.00252265902236104
6396000000.0 0.0021089764777570963 -0.002908939030021429
6400000000.0 -0.0032517872750759125 -0.001680277637206018
6404000000.0 -0.0012575756991282105 0.0035016629844903946
6408000000.0 0.0035827201791107655 0.0008309257100336254
6412000000.0 0.0003945110074710101 -0.0037294907961040735
6416000000.0 -0.0038060706574469805 0.00015627780521754175
6420000000.0 0.0007884323713369668 0.0036972062662243843
6424000000.0 0.003584399586543441 -0.0013708017067983747
6428000000.0 -0.0018269788706675172 -0.0033984368201345205
6432000000.0 -0.0031331696081906557 0.0023909416049718857
6436000000.0 0.0027925376780331135 0.002723789308220148
6440000000.0 0.0023439559154212475 -0.0032292993273586035
6444000000.0 -0.0037052063271403313 -0.001839623088017106
6448000000.0 -0.0012201634235680103 0.003925460856407881
6452000000.0 0.004025460220873356 0.0005230295355431736
6456000000.0 -1.8626762539497577e-05 -0.004021128639578819
6460000000.0 -0.003977864049375057 0.0007712739170528948
6464000000.0 0.0013315525138750672 0.003701412584632635
6468000000.0 0.0035467518027871847 -0.0017978256801143289
6472000000.0 -0.0024368534795939922 -0.0032242487650364637
6476000000.0 -0.002646551700308919 0.002729280386120081
6480000000.0 0.0031356369145214558 0.002145644510164857
6484000000.0 0.001610492472536862 -0.0033345071133226156
6488000000.0 -0.0034676678478717804 -0.0011939200339838862
6492000000.0 -0.0005970925558358431 0.0035133552737534046
6496000000.0 0.003382675815373659 5.4670166719006374e-05
6500000000.0 -0.00036041889688931406 -0.003402822883799672
6504000000.0 -0.0033370708115398884 0.0007947863196022809
6508000000.0 0.001182486885227263 0.003038442926481366
6512000000.0 0.0027329344302415848 -0.0015453592641279101
6516000000.0 -0.0019191710744053125 -0.00259867194108665
6520000000.0 -0.0022896998561918736 0.002068281639367342
6524000000.0 0.0023764537181705236 0.001965628005564213
6528000000.0 0.0016066175885498524 -0.002605234505608678
6532000000.0 -0.002861009445041418 -0.0012598107568919659
6536000000.0 -0.0009137868182733655 0.002978634787723422
6540000000.0 0.002908730646595359 0.0005005112034268677
6544000000.0 0.00018231559079140425 -0.0030007970053702593
6548000000.0 -0.003104773350059986 0.00022762930893804878
6552000000.0 0.0005523283034563065 0.003011012217029929
6556000000.0 0.003005571663379669 -0.0010384562192484736
6560000000.0 -0.0014602930750697851 -0.0028720346745103598
6564000000.0 -0.0026299685705453157 0.0018502934835851192
6568000000.0 0.0021438170224428177 0.0023791168350726366
6572000000.0 0.002023080363869667 -0.0024417031090706587
6576000000.0 -0.0027494896203279495 -0.0017872187308967113
6580000000.0 -0.0014824214158579707 0.003033589804545045
6584000000.0 0.0033133006654679775 0.0010603226255625486
6588000000.0 0.0005107169272378087 -0.003481637453660369
6592000000.0 -0.0035294988192617893 3.475320409052074e-05
6596000000.0 0.00059781305026263 0.0035645300522446632
6600000000.0 0.003478605067357421 -0.0009678206988610327
6604000000.0 -0.0015800513792783022 -0.003397934138774872
6608000000.0 -0.0031580119393765926 0.0021201036870479584
6612000000.0 0.002608433598652482 0.002863351721316576
6616000000.0 0.0023703027982264757 -0.0029881566297262907
6620000000.0 -0.003385067917406559 -0.0017984517617151141
6624000000.0 -0.001321367104537785 0.003728993469849229
6628000000.0 0.0038300829473882914 0.0007667816244065762
6632000000.0 -3.980636392952874e-05 -0.003906845115125179
6636000000.0 -0.0038035111501812935 0.0005524862790480256
6640000000.0 0.001277382136322558 0.003685788717120886
6644000000.0 0.0033671886194497347 -0.0017869810108095407
6648000000.0 -0.002185120014473796 -0.0029393055010586977
6652000000.0 -0.0025392454117536545 0.002663207706063986
6656000000.0 0.002963504521176219 0.001981740817427635
6660000000.0 0.0015667143743485212 -0.0032130072358995676
6664000000.0 -0.0033154014963656664 -0.00108058110345155
6668000000.0 -0.00048628944205120206 0.003406460862606764
6672000000.0 0.0033245235681533813 3.107695738435723e-05
6676000000.0 -0.0004614089848473668 -0.0032597272656857967
6680000000.0 -0.003046998055651784 0.0007990827434696257
6684000000.0 0.0011646001366898417 0.002947248285636306
6688000000.0 0.0027011458296328783 -0.001557188923470676
6692000000.0 -0.0018714111065492034 -0.002492466475814581
6696000000.0 -0.0021174985449761152 0.002152535133063793
6700000000.0 0.0024392646737396717 0.0018371667247265577
6704000000.0 0.0015122065087780356 -0.0025721921119838953
6708000000.0 -0.0027734192553907633 -0.0011567809851840138
6712000000.0 -0.000731646956410259 0.002857198938727379
6716000000.0 0.0029320120811462402 0.0004085398104507476
6720000000.0 2.2547141270479187e-05 -0.0029203579761087894
6724000000.0 -0.0029048011638224125 0.0003517472941894084
6728000000.0 0.0007666491437703371 0.002783705247566104
6732000000.0 0.002719376003369689 -0.001106802374124527
6736000000.0 -0.001507546636275947 -0.0026774173602461815
6740000000.0 -0.002353522228077054 0.0017845468828454614
6744000000.0 0.0022362524177879095 0.002210814505815506
6748000000.0 0.0017545399023219943 -0.0024015901144593954
6752000000.0 -0.002819858491420746 -0.0014581449795514345
6756000000.0 -0.001074278145097196 0.0028972283471375704
6760000000.0 0.003135821083560586 0.0007412964478135109
6764000000.0 0.00023673177929595113 -0.003133568912744522
6768000000.0 -0.003225172171369195 9.763884008862078e-05
6772000000.0 0.0007452742429450154 0.0032726882491260767
6776000000.0 0.0030621520709246397 -0.0011705872602760792
6780000000.0 -0.001575401984155178 -0.0029483370017260313
6784000000.0 -0.002702093683183193 0.002093722578138113
6788000000.0 0.002339520724490285 0.002381160855293274
6792000000.0 0.0019692203495651484 -0.002704925136640668
6796000000.0 -0.0031068644020706415 -0.0015525409253314137
6800000000.0 -0.0010327488416805863 0.0033812918700277805
6804000000.0 0.00356137752532959 0.0004897171747870743
6808000000.0 -0.0001528461289126426 -0.003539199009537697
6812000000.0 -0.0034789422061294317 0.0006570852128788829
6816000000.0 0.0012329535093158484 0.003313695313408971
6820000000.0 0.002967461012303829 -0.001620207098312676
6824000000.0 -0.002066398272290826 -0.0027109559159725904
6828000000.0 -0.0023204146418720484 0.0024162805639207363
6832000000.0 0.0027610647957772017 0.0019259161781519651
6836000000.0 0.0014556815149262547 -0.002975098555907607
6840000000.0 -0.0032319745514541864 -0.0008770916610956192
6844000000.0 -0.00042025698348879814 0.0032097785733640194
6848000000.0 0.0032403753139078617 -3.644326716312207e-05
6852000000.0 -0.00045603301259689033 -0.0030083174351602793
6856000000.0 -0.0028217320796102285 0.0008459005621261895
6860000000.0 0.0013067115796729922 0.0027308447752147913
6864000000.0 0.0023668070789426565 -0.0017050988972187042
6868000000.0 -0.0019527807598933578 -0.002128316555172205
6872000000.0 -0.001876889611594379 0.0020799420308321714
6876000000.0 0.0022504881490021944 0.0014676997670903802
6880000000.0 0.0011783919762820005 -0.002449254272505641
6884000000.0 -0.0024994071573019028 -0.0008897926309145987
6888000000.0 -0.0005307868123054504 0.002673571463674307
6892000000.0 0.0026470471639186144 0.0002332176227355376
6896000000.0 -9.269540896639228e-05 -0.002599859144538641
6900000000.0 -0.0025508361868560314 0.00047538522630929947
6904000000.0 0.000773874344304204 0.002622967353090644
6908000000.0 0.0024808149319142103 -0.0011149599449709058
6912000000.0 -0.0014601864386349916 -0.0022823200561106205
6916000000.0 -0.0021082640159875154 0.0018081156304106116
6920000000.0 0.002010577591136098 0.0018380767432972789
6924000000.0 0.0014878397341817617 -0.0022705276496708393
6928000000.0 -0.0024213981814682484 -0.0011815831530839205
6932000000.0 -0.0009198106126859784 0.0025013231206685305
6936000000.0 0.002595726866275072 0.0005154716782271862
6940000000.0 0.00018418492982164025 -0.0027693333104252815
6944000000.0 -0.0028251702897250652 0.00015136017464101315
6948000000.0 0.0005287175881676376 0.0028448242228478193
6952000000.0 0.002618222264572978 -0.0009819577680900693
6956000000.0 -0.001458029611967504 -0.002538869855925441
6960000000.0 -0.0023087721783667803 0.001722584362141788
6964000000.0 0.00200584065169096 0.0021743045654147863
6968000000.0 0.0018865035381168127 -0.002332355361431837
6972000000.0 -0.002716097515076399 -0.0015130647225305438
6976000000.0 -0.0010366634232923388 0.0030243832152336836
6980000000.0 0.0030767940916121006 0.0005845360574312508
6984000000.0 -1.3678222785529215e-05 -0.0031241034157574177
6988000000.0 -0.003145750844851136 0.0003902142052538693
6992000000.0 0.0008965853485278785 0.0029923238325864077
6996000000.0 0.0029252278618514538 -0.0012564791832119226
7000000000.0 -0.0018014151137322187 -0.002662730636075139
7004000000.0 -0.00237854546867311 0.0022058107424527407
7008000000.0 0.0026592374779284 0.0019856488797813654
7012000000.0 0.001432986930012703 -0.002881348133087158
7016000000.0 -0.003071005456149578 -0.0009377890964969993
7020000000.0 -0.0004539717629086226 0.0031413992401212454
7024000000.0 0.0031646538991481066 3.2744326745159924e-05
7028000000.0 -0.0003842755395453423 -0.003061138791963458
7032000000.0 -0.0028499041218310595 0.0008674670243635774
7036000000.0 0.0013080405769869685 0.002670012414455414
7040000000.0 0.002359909936785698 -0.0016847490333020687
7044000000.0 -0.001939544570632279 -0.0021462079603224993
7048000000.0 -0.0017342971405014396 0.002173387911170721
7052000000.0 0.0023499042727053165 0.0014476582873612642
7056000000.0 0.0011428346624597907 -0.0025427795480936766
7060000000.0 -0.0025875938590615988 -0.0006886607152409852
7064000000.0 -0.0002674079150892794 0.0027041586581617594
7068000000.0 0.002601711079478264 -6.035375554347411e-05
7072000000.0 -0.0004477917100302875 -0.0025200212839990854
7076000000.0 -0.0024067959748208523 0.0006837047985754907
7080000000.0 0.0010664750589057803 0.002292246324941516
7084000000.0 0.0021268280688673258 -0.0013665128499269485
7088000000.0 -0.0015672794543206692 -0.001849087537266314
7092000000.0 -0.0017161922296509147 0.0017771231941878796
7096000000.0 0.0019006497459486127 0.0014030664460733533
7100000000.0 0.0012047846103087068 -0.002074248855933547
7104000000.0 -0.002150437794625759 -0.0009084144257940352
7108000000.0 -0.0007096405024640262 0.0023829517886042595
7112000000.0 0.0024525995831936598 0.00035403668880462646
7116000000.0 1.779284275471582e-07 -0.002469572238624096
7120000000.0 -0.0024488975759595633 0.00034838050487451255
7124000000.0 0.0005269745597615838 0.00233129458501935
7128000000.0 0.0023378098849207163 -0.0009128863457590342
7132000000.0 -0.0012576013104990125 -0.0021694765891879797
7136000000.0 -0.0021807083394378424 0.001555076683871448
7140000000.0 0.001726508024148643 0.0018821584526449442
7144000000.0 0.001652183593250811 -0.002144037978723645
7148000000.0 -0.0024156863801181316 -0.001321624033153057
7152000000.0 -0.0009420336573384702 0.0025455262511968613
7156000000.0 0.0026743276976048946 0.0005778813501819968
7160000000.0 0.00014334918523672968 -0.0027830651961266994
7164000000.0 -0.0029397846665233374 0.00024121587921399623
7168000000.0 0.00063824572134763 0.0028721916023641825
7172000000.0 0.002760434290394187 -0.0012214239686727524
7176000000.0 -0.001642402377910912 -0.002625613007694483
7180000000.0 -0.0023449580185115337 0.0020903698168694973
7184000000.0 0.002669143257662654 0.0019407238578423858
7188000000.0 0.0014159725978970528 -0.0029267403297126293
7192000000.0 -0.0030404292047023773 -0.001010606181807816
7196000000.0 -0.0004679786507040262 0.0031281805131584406
7200000000.0 0.0030749901197850704 -8.024346607271582e-05
7204000000.0 -0.0005707113305106759 -0.0031006119679659605
7208000000.0 -0.0029900262597948313 0.0010280243586748838
7212000000.0 0.0015058150747790933 0.002734358888119459
7216000000.0 0.002466633217409253 -0.001929050893522799
7220000000.0 -0.0023771377746015787 -0.0019407551735639572
7224000000.0 -0.0014782625949010253 0.0025737276300787926
7228000000.0 0.002580336993560195 0.0009096753783524036
7232000000.0 0.0006884798058308661 -0.0026846216060221195
7236000000.0 -0.0025881193578243256 -0.000212293685763143
7240000000.0 5.920048351981677e-05 0.0025721387937664986
7244000000.0 0.002461446449160576 -0.0004657795943785459
7248000000.0 -0.0008282932685688138 -0.0023693100083619356
7252000000.0 -0.002081522485241294 0.0011090149637311697
7256000000.0 0.0012610475532710552 0.0018838888499885798
7260000000.0 0.001635549939237535 -0.0015083970502018929
7264000000.0 -0.0017000093357637525 -0.0013943292433395982
7268000000.0 -0.0011575561948120594 0.0016912075225263834
7272000000.0 0.0018411078490316868 0.0009623839287087321
7276000000.0 0.0006609972915612161 -0.0019991255830973387
7280000000.0 -0.0020575509406626225 -0.0005648558726534247
7284000000.0 -0.00022231844195630401 0.0020447326824069023
7288000000.0 0.0021337210200726986 4.621573680196889e-05
7292000000.0 -0.00025559280766174197 -0.0021190207917243242
7296000000.0 -0.002039747079834342 0.0006844132440164685
7300000000.0 0.0008964524604380131 0.0018814997747540474
7304000000.0 0.001725410227663815 -0.001098553417250514
7308000000.0 -0.0011949999025091529 -0.001574189169332385
7312000000.0 -0.0015107596991583705 0.0014747970271855593
7316000000.0 0.00168708898127079 0.0012569022364914417
7320000000.0 0.0011608251370489597 -0.001960949506610632
7324000000.0 -0.002156773814931512 -0.0008495814399793744
7328000000.0 -0.00048535727546550333 0.0022354363463819027
7332000000.0 0.002435083733871579 0.0001239085104316473
7336000000.0 -0.0002107354230247438 -0.0023603090085089207
7340000000.0 -0.0023930477909743786 0.00047483041998930275
7344000000.0 0.0006982795312069356 0.0023972417693585157
7348000000.0 0.0024174025747925043 -0.0012119367020204663
7352000000.0 -0.001661078305914998 -0.002290422096848488
7356000000.0 -0.001981545938178897 0.0021030919160693884
7360000000.0 0.0025282783899456263 0.00157569395378232
7364000000.0 0.0011968702310696244 -0.0028288743924349546
7368000000.0 -0.002872639801353216 -0.0007029594853520393
7372000000.0 -0.00014198523422237486 0.003033576998859644
7376000000.0 0.003109254641458392 -0.0003736256039701402
7380000000.0 -0.001098422217182815 -0.0030795959755778313
7384000000.0 -0.0026326056104153395 0.0016531795263290405
7388000000.0 0.0022160254884511232 0.0021531383972615004
7392000000.0 0.00164463697001338 -0.0024930883664637804
7396000000.0 -0.0025582623202353716 -0.001163278240710497
7400000000.0 -0.0005619876319542527 0.002621329389512539
7404000000.0 0.0026189428754150867 6.0153128288220614e-05
7408000000.0 -0.0004716644762083888 -0.0024639456532895565
7412000000.0 -0.0022434352431446314 0.0007527940906584263
7416000000.0 0.0009509699302725494 0.001862746779806912
7420000000.0 0.001614191452972591 -0.0011189464712515473
7424000000.0 -0.0012784571154043078 -0.0014034644700586796
7428000000.0 -0.0011018837103620172 0.0013647108571603894
7432000000.0 0.0014593558153137565 0.000871701748110354
7436000000.0 0.0006092042312957346 -0.0015376860974356532
7440000000.0 -0.0014791394351050258 -0.000415956717915833
7444000000.0 -0.00020424244576133788 0.0014881527749821544
7448000000.0 0.0014086043229326606 2.821284761012066e-05
7452000000.0 -0.00014649852528236806 -0.0013137863716110587
7456000000.0 -0.0013715025270357728 0.00028128427220508456
7460000000.0 0.0003830591740552336 0.0012717616045847535
7464000000.0 0.0011401724768802524 -0.0005539866397157311
7468000000.0 -0.0006942533073015511 -0.0010961766820400953
7472000000.0 -0.0009213707526214421 0.0007655672379769385
7476000000.0 0.0007815072312951088 0.0008691021939739585
7480000000.0 0.0007633694913238287 -0.0009055307600647211
7484000000.0 -0.0008963528671301901 -0.0006586630479432642
7488000000.0 -0.0005113749648444355 0.0010579597437754273
7492000000.0 0.0011086027370765805 0.0004264267045073211
7496000000.0 0.00028405358898453414 -0.0012370558688417077
7500000000.0 -0.001301900832913816 -8.177297422662377e-05
7504000000.0 -3.880218355334364e-05 0.0012410253984853625
7508000000.0 0.0012617356842383742 -9.313640475738794e-05
7512000000.0 -0.00041509440052323043 -0.001368789467960596
7516000000.0 -0.0012507616775110364 0.0004615887301042676
7520000000.0 0.0006954381824471056 0.001301280572079122
7524000000.0 0.001219174126163125 -0.0009709837031550705
7528000000.0 -0.001174246659502387 -0.0011044606799259782
7532000000.0 -0.0010430783731862903 0.0013555787736549973
7536000000.0 0.0016297695692628622 0.000826335686724633
7540000000.0 0.0004937797784805298 -0.0019768064375966787
7544000000.0 -0.002062184037640691 1.630227779969573e-05
7548000000.0 0.0005712214624509215 0.0019969381392002106
7552000000.0 0.0017871332820504904 -0.0010301538277417421
7556000000.0 -0.0013267750618979335 -0.0013628618326038122
7560000000.0 -0.0009297119686380029 0.001514442847110331
7564000000.0 0.0017049878370016813 0.0005403007962740958
7568000000.0 8.000405796337873e-05 -0.0015905210748314857
7572000000.0 -0.0012786160223186016 0.00017880120140034705
7576000000.0 0.000391812645830214 0.001132208271883428
7580000000.0 0.0009202341316267848 -0.00041716499254107475
7584000000.0 -0.0005934975342825055 -0.0007614812930114567
7588000000.0 -0.0006424107123166323 0.0005051098996773362
7592000000.0 0.0005770903662778437 0.0005403750692494214
7596000000.0 0.0004052330332342535 -0.0005884700804017484
7600000000.0 -0.000587965885642916 -0.00027236310415901244
7604000000.0 -0.00018337192886974663 0.0005743298097513616
7608000000.0 0.0005008823936805129 0.00012665924441535026
7612000000.0 7.307967462111264e-05 -0.0005161961307749152
7616000000.0 -0.0004999602679163218 -2.772910738713108e-05
7620000000.0 -2.185053199355025e-05 0.0005020722164772451
7624000000.0 0.0004492918378673494 -8.748303662287071e-05
7628000000.0 -1.2665463145822287e-05 -0.0004683927691075951
7632000000.0 -0.00039396839565597475 9.070918895304203e-05
7636000000.0 6.400368147296831e-05 0.0004658387915696949
7640000000.0 0.00038404110819101334 -7.953261228976771e-05
7644000000.0 -0.00023607451294083148 -0.00032377339084632695
7648000000.0 -0.00036027171881869435 0.00021258910419419408
7652000000.0 0.00024310268054250628 0.0002793042513076216
7656000000.0 0.00032670353539288044 -0.0002556554682087153
7660000000.0 -0.0002920129627455026 -0.00031889602541923523
7664000000.0 -0.00030580631573684514 0.0002751813444774598
7668000000.0 0.0003074744890909642 0.00019642246479634196
7672000000.0 0.00022421297035180032 -0.0003925020864699036
7676000000.0 -0.00038579455576837063 -9.27262008190155e-05
7680000000.0 -0.00015439461276400834 0.0003828318731393665
7684000000.0 0.0004516342014539987 0.00013620323443319649
7688000000.0 8.524837903678417e-05 -0.0004272791848052293
7692000000.0 -0.0005001153331249952 2.1877954168303404e-06
7696000000.0 -3.430089418543503e-05 0.000585817382670939
7700000000.0 0.0005929069011472166 -0.00013893208233639598
7704000000.0 -0.0002985130704473704 -0.0005476865917444229
7708000000.0 -0.0004827097582165152 0.00035540031967684627
7712000000.0 0.0005316164460964501 0.0004124063125345856
7716000000.0 0.00017367969849146903 -0.0005888757877983153
7720000000.0 -0.0005508807371370494 -0.00015563986380584538
7724000000.0 1.23326417451608e-05 0.0005412350292317569
7728000000.0 0.0004302888992242515 -7.06808059476316e-05
7732000000.0 -0.00019625143613666296 -0.0004003092763014138
7736000000.0 -0.00033103645546361804 0.0001327911450061947
7740000000.0 0.00017636743723414838 0.0002905396104324609
7744000000.0 0.00018690229626372457 -0.00016842201875988394
7748000000.0 -0.000215519467019476 -0.00019600903033278883
7752000000.0 -0.00015603701467625797 0.00022102582443039864
7756000000.0 0.0002251409023301676 0.00011229859956074506
7760000000.0 0.00015399401308968663 -0.00019188786973245442
7764000000.0 -0.0002076399978250265 -8.047364099184051e-05
7768000000.0 -8.255258580902591e-05 0.00020453636534512043
7772000000.0 0.00024678424233570695 5.096513268654235e-05
7776000000.0 4.473835360840894e-05 -0.00017357023898512125
7780000000.0 -0.00023585298913531005 -5.9598402003757656e-05
7784000000.0 -3.305639256723225e-05 0.0001432467543054372
7788000000.0 0.00019702964345924556 2.6575857191346586e-05
7792000000.0 1.749190232658293e-05 -0.00025477923918515444
7796000000.0 -0.00023174751549959183 4.196451118332334e-05
7800000000.0 9.21764294616878e-05 0.00019039532344322652
7804000000.0 0.00018761622777674347 -2.5949351766030304e-05
7808000000.0 -1.3681064046977554e-05 -0.00016249735199380666
7812000000.0 -0.00020497955847531557 6.218823546078056e-05
7816000000.0 9.66961815720424e-05 0.0002100597193930298
7820000000.0 0.00024324518744833767 -0.00012919750588480383
7824000000.0 -6.991394184296951e-05 -0.00020576293172780424
7828000000.0 -0.0002176563866669312 0.00016290656640194356
7832000000.0 0.00023890352167654783 0.00019956468895543367
7836000000.0 0.00021321431268006563 -0.00021969835506752133
7840000000.0 -0.0002039472310571 -0.00015960093878675252
7844000000.0 -0.00018464379536453635 0.00029125812579877675
7848000000.0 0.0003499031299725175 0.00013340212171897292
7852000000.0 0.00015897197590675205 -0.00031236326321959496
7856000000.0 -0.0003898181312251836 -4.804863783647306e-05
7860000000.0 -6.053163087926805e-05 0.00041152554331347346
7864000000.0 0.0005220444872975349 -5.327321923687123e-05
7868000000.0 -0.00010299437417415902 -0.0006010113283991814
7872000000.0 -0.0005027499864809215 0.00016654164937790483
7876000000.0 0.00039722255314700305 0.000550985976587981
7880000000.0 0.0004900803323835135 -0.0005502147832885385
7884000000.0 -0.0006169805419631302 -0.0003578755131457001
7888000000.0 -0.00010214630310656503 0.0007563330000266433
7892000000.0 0.0006767482846044004 1.981141758733429e-05
7896000000.0 -8.878653170540929e-05 -0.0006182437646202743
7900000000.0 -0.0006362200947478414 0.0001937328779604286
7904000000.0 0.0003189832204952836 0.000529977201949805
7908000000.0 0.00045370846055448055 -0.00036899864790029824
7912000000.0 -0.00033746627741493285 -0.00036948177148588
7916000000.0 -0.0002316458849236369 0.0004843414353672415
7920000000.0 0.0004503064847085625 0.00024259074416477233
7924000000.0 0.00016397435683757067 -0.0003994689031969756
7928000000.0 -0.00045554855023510754 -0.00012006534961983562
7932000000.0 -7.470327545888722e-05 0.0003285471466369927
7936000000.0 0.0004674147057812661 5.719405089621432e-05
7940000000.0 -5.0685157475527376e-05 -0.0003760788240469992
7944000000.0 -0.0004045959794893861 6.735999340889975e-05
7948000000.0 0.00011116172390757129 0.0003931997634936124
7952000000.0 0.0003293161280453205 -0.0001865831291070208
7956000000.0 -0.00019237733795307577 -0.00030709875863976777
7960000000.0 -0.00027417679666541517 0.00021956303680781275
7964000000.0 0.0002640474704094231 0.00035921053495258093
7968000000.0 0.0003070966340601444 -0.0003111401165369898
7972000000.0 -0.0003614522865973413 -0.0003175142337568104
7976000000.0 -0.00027138786390423775 0.00027814836357720196
7980000000.0 0.0003860421711578965 0.00016720622079446912
7984000000.0 0.00018596883455757052 -0.0004199267423246056
7988000000.0 -0.0003752865013666451 -0.00013784859038423747
7992000000.0 -6.011844743625261e-05 0.0005072664353065193
7996000000.0 0.0005855638883076608 0.00011423161049606279
8000000000.0 2.0664318071794696e-05 -0.0005618701688945293
