! Created with skrf 1.10.0 (http://scikit-rf.org).
# Hz S RI R 50.0 
!freq ReS11 ImS11
!
4000000000.0 -0.004656315315514803 -0.0016246424056589603
4004000000.0 -0.0040987576358020306 0.00255896570160985
4008000000.0 -0.0006142965285107493 0.004908084403723478
4012000000.0 0.0035478807985782623 0.003590536769479513
4016000000.0 0.00501282699406147 -0.0005634987028315663
4020000000.0 0.0026882458478212357 -0.004441316705197096
4024000000.0 -0.0016904176445677876 -0.004931056406348944
4028000000.0 -0.004888070747256279 -0.001700447523035109
4032000000.0 -0.0044318377040326595 0.002772245556116104
4036000000.0 -0.0005299187614582479 0.005222991108894348
4040000000.0 0.0038055158220231533 0.0037041581235826015
4044000000.0 0.005233884323388338 -0.0008450084715150297
4048000000.0 0.002680583391338587 -0.0046585118398070335
4052000000.0 -0.0020073167979717255 -0.004900264088064432
4056000000.0 -0.005164134316146374 -0.0014720754697918892
4060000000.0 -0.0043069892562925816 0.003118936438113451
4064000000.0 -0.00014336625463329256 0.005324907600879669
4068000000.0 0.004010465927422047 0.003504387103021145
4072000000.0 0.0051827505230903625 -0.0010087598348036408
4076000000.0 0.0024192258715629578 -0.004732963163405657
4080000000.0 -0.0022231522016227245 -0.0048885224387049675
4084000000.0 -0.005091438069939613 -0.0012739204103127122
4088000000.0 -0.004204070661216974 0.003177912440150976
4092000000.0 -0.00011012642789864913 0.005138962063938379
4096000000.0 0.00417224271222949 0.0032591507770121098
4100000000.0 0.00517622847110033 -0.0012154730502516031
4104000000.0 0.002120496705174446 -0.004771456588059664
4108000000.0 -0.0022502741776406765 -0.004524647258222103
4112000000.0 -0.004933584947139025 -0.0010240923147648573
4116000000.0 -0.0038726823404431343 0.0032063135877251625
4120000000.0 6.910158117534593e-05 0.004822393413633108
4124000000.0 0.003937520086765289 0.0029938144143670797
4128000000.0 0.004632948432117701 -0.0011724332580342889
4132000000.0 0.0022179794032126665 -0.004216435365378857
4136000000.0 -0.002040860941633582 -0.004312060307711363
4140000000.0 -0.004514927044510841 -0.0010174695635214448
4144000000.0 -0.003563582431524992 0.0028518126346170902
4148000000.0 -0.0001077693304978311 0.004567347466945648
4152000000.0 0.0035165539011359215 0.002912117401137948
4156000000.0 0.004605165682733059 -0.0008946564048528671
4160000000.0 0.002084087347611785 -0.0040505207143723965
4164000000.0 -0.001954828854650259 -0.0040932162664830685
4168000000.0 -0.0043188356794416904 -0.0010584165574982762
4172000000.0 -0.0035912813618779182 0.0027301402296870947
4176000000.0 -7.9551333328709e-05 0.004361135419458151
4180000000.0 0.003160986350849271 0.0029176182579249144
4184000000.0 0.004389028064906597 -0.0007194201461970806
4188000000.0 0.0021285025868564844 -0.003888625418767333
4192000000.0 -0.0015648339176550508 -0.0040853493846952915
4196000000.0 -0.004159131087362766 -0.0012797286035493016
4200000000.0 -0.0036917550023645163 0.0024001142010092735
4204000000.0 -0.0005215232959017158 0.004245634190738201
4208000000.0 0.003089971374720335 0.0029719313606619835
4212000000.0 0.004247071221470833 -0.0004981802776455879
4216000000.0 0.002423390746116638 -0.0035226077307015657
4220000000.0 -0.0011684902710840106 -0.004038003273308277
4224000000.0 -0.003956025931984186 -0.0016487690154463053
4228000000.0 -0.0038568901363760233 0.002135246293619275
4232000000.0 -0.0008677493315190077 0.004271465353667736
4236000000.0 0.0029952607583254576 0.003291764762252569
4240000000.0 0.00439863745123148 -0.00018795821233652532
4244000000.0 0.0025779057759791613 -0.0035858657211065292
4248000000.0 -0.0012362136039882898 -0.004308637697249651
4252000000.0 -0.004082432948052883 -0.0018978555453941226
4256000000.0 -0.0040339455008506775 0.001943885930813849
4260000000.0 -0.0009207471157424152 0.004299435298889875
4264000000.0 0.0028977859765291214 0.0033283326774835587
4268000000.0 0.004622165113687515 3.650779945019167e-06
4272000000.0 0.002819852437824011 -0.0036037375684827566
4276000000.0 -0.0011831845622509718 -0.004444495774805546
4280000000.0 -0.004062161780893803 -0.002022047061473131
4284000000.0 -0.004097931552678347 0.0020124735310673714
4288000000.0 -0.0009974997956305742 0.004407763481140137
4292000000.0 0.002872835611924529 0.0037713535130023956
4296000000.0 0.004658917896449566 -8.096669262158684e-06
4300000000.0 0.0030620191246271133 -0.0036441844422370195
4304000000.0 -0.001060426002368331 -0.004673363175243139
4308000000.0 -0.004390908870846033 -0.0020482423715293407
4312000000.0 -0.004383330699056387 0.0020949291065335274
4316000000.0 -0.0010395440040156245 0.004694816190749407
4320000000.0 0.0031168689019978046 0.0038890959694981575
4324000000.0 0.0047987401485443115 -2.1402889615274034e-05
4328000000.0 0.0028930818662047386 -0.003840544493868947
4332000000.0 -0.0012501813471317291 -0.004693659488111734
4336000000.0 -0.004401263315230608 -0.0021213118452578783
4340000000.0 -0.004221737384796143 0.0022968421690165997
4344000000.0 -0.0008209219085983932 0.004882321693003178
4348000000.0 0.003195118857547641 0.0035700539592653513
4352000000.0 0.004911118187010288 -0.00029132753843441606
4356000000.0 0.002812510123476386 -0.004089659079909325
4360000000.0 -0.001413283054716885 -0.004753607790917158
4364000000.0 -0.004473760258406401 -0.0018225705716758966
4368000000.0 -0.004083805717527866 0.0024469243362545967
4372000000.0 -0.0005795821198262274 0.004621823318302631
4376000000.0 0.003201499115675688 0.0033819491509348154
4380000000.0 0.0047049554996192455 -0.00046267727157101035
4384000000.0 0.0023589630145579576 -0.003971953876316547
4388000000.0 -0.0015930560184642673 -0.004354674369096756
4392000000.0 -0.004345344379544258 -0.0014445676933974028
4396000000.0 -0.0037714126519858837 0.0024935659021139145
4400000000.0 -0.0002752469736151397 0.00447331927716732
4404000000.0 0.0032547968439757824 0.0029493942856788635
4408000000.0 0.004374189767986536 -0.0007195090292952955
4412000000.0 0.002188570098951459 -0.0036158685106784105
4416000000.0 -0.0014970512129366398 -0.004074767231941223
4420000000.0 -0.0040224045515060425 -0.0012025150936096907
4424000000.0 -0.0034057442098855972 0.0022509407717734575
4428000000.0 -0.00025280629051849246 0.004119976423680782
4432000000.0 0.0028610455337911844 0.0028661885298788548
4436000000.0 0.003980661742389202 -0.0005078202812001109
4440000000.0 0.002156328409910202 -0.0033668233081698418
4444000000.0 -0.0012821888085454702 -0.003794631687924266
4448000000.0 -0.003703087568283081 -0.001332402229309082
4452000000.0 -0.0033417236991226673 0.0019370266236364841
4456000000.0 -0.0004966873675584793 0.003951731603592634
4460000000.0 0.0026123952120542526 0.0027518600691109896
4464000000.0 0.003793809562921524 -0.0003365061420481652
4468000000.0 0.0021458626724779606 -0.0032403457444161177
4472000000.0 -0.0011631870875135064 -0.0036309100687503815
4476000000.0 -0.0035478791687637568 -0.0013193337945267558
4480000000.0 -0.0031531290151178837 0.001989671029150486
4484000000.0 -0.0005608498468063772 0.0036239721812307835
4488000000.0 0.002586538903415203 0.0027652611024677753
4492000000.0 0.0036605093628168106 -0.00020138789841439575
4496000000.0 0.0022437376901507378 -0.0029871014412492514
4500000000.0 -0.0009726451826281846 -0.0035544245038181543
4504000000.0 -0.003288532607257366 -0.0015299011720344424
4508000000.0 -0.003288619453087449 0.0016119582578539848
4512000000.0 -0.0007453388534486294 0.0035565937869250774
4516000000.0 0.0024043365847319365 0.002919840859249234
4520000000.0 0.003864580998197198 7.442638889187947e-05
4524000000.0 0.002369790803641081 -0.0029117765370756388
4528000000.0 -0.0007820705068297684 -0.0037420152220875025
4532000000.0 -0.0032750216778367758 -0.0017584236338734627
4536000000.0 -0.003355748252943158 0.001499340869486332
4540000000.0 -0.0010060155764222145 0.003583618439733982
4544000000.0 0.0021936355624347925 0.002986988751217723
4548000000.0 0.0038065724074840546 0.0002376795600866899
4552000000.0 0.0024863213766366243 -0.0028485737275332212
4556000000.0 -0.0005937572568655014 -0.0037376079708337784
4560000000.0 -0.003464046400040388 -0.0018839112017303705
4564000000.0 -0.0036461816634982824 0.0015266193076968193
4568000000.0 -0.0011787567054852843 0.0037532078567892313
4572000000.0 0.002241650829091668 0.0030890346970409155
4576000000.0 0.0038781764451414347 0.0002544391609262675
4580000000.0 0.0026414874009788036 -0.0028845451306551695
4584000000.0 -0.000635569216683507 -0.003933995496481657
4588000000.0 -0.0036201863549649715 -0.0019355094991624355
4592000000.0 -0.0037606777623295784 0.001533431001007557
4596000000.0 -0.0010793822584673762 0.0038861390203237534
4600000000.0 0.0023658054415136576 0.0033038926776498556
4604000000.0 0.0040772599168121815 0.00023398765188176185
4608000000.0 0.0025430696550756693 -0.0032484987750649452
4612000000.0 -0.0008255075663328171 -0.004020739812403917
4616000000.0 -0.003597788978368044 -0.0018412735080346465
4620000000.0 -0.0036851672921329737 0.001743896515108645
4624000000.0 -0.0009093323023989797 0.003872824367135763
4628000000.0 0.002521328628063202 0.003151233308017254
4632000000.0 0.004087282810360193 -9.131830302067101e-05
4636000000.0 0.0024696597829461098 -0.00323294079862535
4640000000.0 -0.0009782452834770083 -0.0039299349300563335
4644000000.0 -0.003746139584109187 -0.0016863553319126368
4648000000.0 -0.0035795383155345917 0.0019074593437835574
4652000000.0 -0.0007092584273777902 0.003969344310462475
4656000000.0 0.002586097689345479 0.003107678145170212
4660000000.0 0.004004849586635828 -0.00018096831627190113
4664000000.0 0.002316921018064022 -0.0031799054704606533
4668000000.0 -0.001023988239467144 -0.0036639573518186808
4672000000.0 -0.003677842440083623 -0.0014162982115522027
4676000000.0 -0.0033104598987847567 0.0019277888350188732
4680000000.0 -0.0005175105761736631 0.0037685122806578875
4684000000.0 0.002656131749972701 0.0027219161856919527
4688000000.0 0.003702282439917326 -0.000283300643786788
4692000000.0 0.002104486571624875 -0.00304874824360013
4696000000.0 -0.0010414900025352836 -0.0035553930792957544
4700000000.0 -0.003380327485501766 -0.0013210048200562596
4704000000.0 -0.0031333572696894407 0.0019115337636321783
4708000000.0 -0.0005297858733683825 0.003510055597871542
4712000000.0 0.0023624752648174763 0.002569783478975296
4716000000.0 0.003464426612481475 -0.00022585800616070628
4720000000.0 0.002081938786432147 -0.0028652173932641745
4724000000.0 -0.0009363017743453383 -0.003391507314518094
4728000000.0 -0.003259151242673397 -0.0012980742612853646
4732000000.0 -0.0030050131026655436 0.0016718265833333135
4736000000.0 -0.0006126613006927073 0.003329209052026272
4740000000.0 0.0022717828396707773 0.0025960274506360292
4744000000.0 0.003365409793332219 -0.00021131565154064447
4748000000.0 0.0020833441521972418 -0.002736038062721491
4752000000.0 -0.0009073908440768719 -0.0033136187121272087
4756000000.0 -0.0032050947193056345 -0.0014999445993453264
4760000000.0 -0.0030471300706267357 0.0015056564006954432
4764000000.0 -0.0007334814872592688 0.003326072357594967
4768000000.0 0.0020553262438625097 0.0025924977380782366
4772000000.0 0.003431394463405013 6.998439494054765e-05
4776000000.0 0.002174068009480834 -0.0026529410388320684
4780000000.0 -0.0006516240537166595 -0.003334671026095748
4784000000.0 -0.0029583110008388758 -0.0016491394490003586
4788000000.0 -0.0030383591074496508 0.001308789593167603
4792000000.0 -0.0009796906961128116 0.0032177467364817858
4796000000.0 0.0019921797793358564 0.0027132309041917324
4800000000.0 0.0033595312852412462 0.00017803593073040247
4804000000.0 0.002338356338441372 -0.0024653703439980745
4808000000.0 -0.00044280363363213837 -0.003428212832659483
4812000000.0 -0.0029689050279557705 -0.0017609226051717997
4816000000.0 -0.0033142368774861097 0.0012036027619615197
4820000000.0 -0.0011119629489257932 0.0032823553774505854
4824000000.0 0.0018978628795593977 0.002920702798292041
4828000000.0 0.0035893383901566267 0.00039664219366386533
4832000000.0 0.0025404170155525208 -0.002610708586871624
4836000000.0 -0.0004811138496734202 -0.0037426729686558247
4840000000.0 -0.0031269206665456295 -0.001874947571195662
4844000000.0 -0.003491671523079276 0.001409308286383748
4848000000.0 -0.0011331394780427217 0.0035581679549068213
4852000000.0 0.0021587195806205273 0.003146019298583269
4856000000.0 0.0037079749163240194 0.0002053745265584439
4860000000.0 0.002502528252080083 -0.002828553318977356
4864000000.0 -0.0005105040618218482 -0.0036977853160351515
4868000000.0 -0.0032478352077305317 -0.0019446309888735414
4872000000.0 -0.003542813239619136 0.0014734886353835464
4876000000.0 -0.0011323041981086135 0.003725940128788352
4880000000.0 0.0022256900556385517 0.003220044309273362
4884000000.0 0.0039423503912985325 0.00022396002896130085
4888000000.0 0.002605110639706254 -0.002966753439977765
4892000000.0 -0.000676474126521498 -0.0038871958386152983
4896000000.0 -0.0036155397538095713 -0.0019440173637121916
4900000000.0 -0.0037107274401932955 0.001730365795083344
4904000000.0 -0.0009111142717301846 0.003935781307518482
4908000000.0 0.002536710351705551 0.0030865930020809174
4912000000.0 0.0039957668632268906 -1.8600301700644195e-05
4916000000.0 0.002337854355573654 -0.0031716281082481146
4920000000.0 -0.0010462143691256642 -0.003864767961204052
4924000000.0 -0.003441404551267624 -0.0016252185450866818
4928000000.0 -0.003496372839435935 0.0017082219710573554
4932000000.0 -0.0007732302765361965 0.003894217312335968
4936000000.0 0.0024729438591748476 0.0030466814059764147
4940000000.0 0.0038208886981010437 -0.00019620649982243776
4944000000.0 0.0023108208552002907 -0.0031108232215046883
4948000000.0 -0.0009842575527727604 -0.0037301911506801844
4952000000.0 -0.0035468495916575193 -0.001559555996209383
4956000000.0 -0.0033182690385729074 0.0017555957892909646
4960000000.0 -0.0006857637199573219 0.0037438522558659315
4964000000.0 0.002540118759498 0.0027563092298805714
4968000000.0 0.0037556837778538465 -0.00020432409655768424
4972000000.0 0.0021004383452236652 -0.0030044501181691885
4976000000.0 -0.0010242944117635489 -0.003546704538166523
4980000000.0 -0.003337824484333396 -0.0014239267911762
4984000000.0 -0.0032661703880876303 0.0017389387357980013
4988000000.0 -0.0007459251210093498 0.0035175555385649204
4992000000.0 0.0022781328298151493 0.002722343197092414
4996000000.0 0.003577865893021226 -0.00010779957665363327
5000000000.0 0.002188919810578227 -0.0028393056709319353
5004000000.0 -0.0008366938563995063 -0.003470960073173046
5008000000.0 -0.0033156105782836676 -0.0014305018121376634
5012000000.0 -0.0032051117159426212 0.001625342876650393
5016000000.0 -0.0007272566435858607 0.003436756320297718
5020000000.0 0.002259350148960948 0.002630004193633795
5024000000.0 0.00340502941980958 -4.9343216232955456e-05
5028000000.0 0.002135687740519643 -0.002692259382456541
5032000000.0 -0.000782219460234046 -0.003381839022040367
5036000000.0 -0.003023787634447217 -0.00150018697604537
5040000000.0 -0.0030888067558407784 0.0014324199873954058
5044000000.0 -0.0008524633594788611 0.0033016193192452192
5048000000.0 0.00216551567427814 0.002834577113389969
5052000000.0 0.003525062929838896 0.00018645013915374875
5056000000.0 0.0022859126329421997 -0.0027008361648768187
5060000000.0 -0.0006443756865337491 -0.003476217156276107
5064000000.0 -0.0030803608242422342 -0.0017219919245690107
5068000000.0 -0.0032767346128821373 0.0012859631096944213
5072000000.0 -0.0009383326978422701 0.0034889683593064547
5076000000.0 0.00200230092741549 0.0029172226786613464
5080000000.0 0.003426076378673315 0.0003209393471479416
5084000000.0 0.002383567625656724 -0.0024872838985174894
5088000000.0 -0.0004876690509263426 -0.0034108341205865145
5092000000.0 -0.0030388382729142904 -0.001832305104471743
5096000000.0 -0.003255257848650217 0.0010579174850136042
5100000000.0 -0.00133705569896847 0.0033772189635783434
5104000000.0 0.0018403185531497002 0.0030413141939789057
5108000000.0 0.003662483301013708 0.0005277631571516395
5112000000.0 0.0026761649642139673 -0.0025640581734478474
5116000000.0 -0.00030445161974057555 -0.0037387413904070854
5120000000.0 -0.0032406796235591173 -0.0020852189045399427
5124000000.0 -0.0036528410855680704 0.0012803017161786556
5128000000.0 -0.001312370179221034 0.0036402775440365076
5132000000.0 0.0020899581722915173 0.003206514520570636
5136000000.0 0.003910561092197895 0.0004131387686356902
5140000000.0 0.0027593248523771763 -0.0027490074280649424
5144000000.0 -0.00046021732850931585 -0.003983619157224894
5148000000.0 -0.003265012986958027 -0.002031443640589714
5152000000.0 -0.003796990728005767 0.001338350586593151
5156000000.0 -0.0013300926657393575 0.0037263240665197372
5160000000.0 0.00220623635686934 0.003369312034919858
5164000000.0 0.003994741942733526 0.00039722322253510356
5168000000.0 0.0028470181860029697 -0.003017549403011799
5172000000.0 -0.0006719400989823043 -0.004069693386554718
5176000000.0 -0.0035871132276952267 -0.0020682490430772305
5180000000.0 -0.003762646811082959 0.0016713590594008565
5184000000.0 -0.0010354601545259356 0.003963765688240528
5188000000.0 0.002441367832943797 0.0032279896549880505
5192000000.0 0.004004879854619503 7.278234261320904e-05
5196000000.0 0.0026322819758206606 -0.003075900487601757
5200000000.0 -0.0008346878457814455 -0.003912955988198519
5204000000.0 -0.0035310955718159676 -0.0016931648133322597
5208000000.0 -0.00344929494895041 0.0016783613245934248
5212000000.0 -0.0008597713313065469 0.003730369731783867
5216000000.0 0.002427196130156517 0.003082754323258996
5220000000.0 0.0038487808778882027 7.317657582461834e-05
5224000000.0 0.0024907696060836315 -0.0030638552270829678
5228000000.0 -0.0008240617462433875 -0.0037946852389723063
5232000000.0 -0.0033579571172595024 -0.0015983136836439371
5236000000.0 -0.0033699756022542715 0.0016694286605343223
5240000000.0 -0.0007333497051149607 0.0036019550170749426
5244000000.0 0.0023906396236270666 0.0028499651234596968
5248000000.0 0.003616421716287732 -3.155665399390273e-05
5252000000.0 0.0022437232546508312 -0.0028645319398492575
5256000000.0 -0.0008562890579923987 -0.0035098923835903406
5260000000.0 -0.003288478823378682 -0.0015675467438995838
5264000000.0 -0.003197541693225503 0.0014904910931363702
5268000000.0 -0.000898833095561713 0.0033643110655248165
5272000000.0 0.002085211221128702 0.0027892168145626783
5276000000.0 0.0034553525038063526 0.00018033782544080168
5280000000.0 0.0021445120219141245 -0.0025383897591382265
5284000000.0 -0.0006669411668553948 -0.003314818488433957
5288000000.0 -0.0029950200114399195 -0.0015965955099090934
5292000000.0 -0.003066358622163534 0.0012305284617468715
5296000000.0 -0.000925298547372222 0.003031755331903696
5300000000.0 0.0017921064281836152 0.0026533978525549173
5304000000.0 0.0032542815897613764 0.00032748281955718994
5308000000.0 0.0021914185490459204 -0.002255130559206009
5312000000.0 -0.0002849147713277489 -0.003093799576163292
5316000000.0 -0.002588698174804449 -0.001682708621956408
5320000000.0 -0.002933081239461899 0.0009478049469180405
5324000000.0 -0.0011441815877333283 0.0029160012491047382
5328000000.0 0.001510870293714106 0.0027683081571012735
5332000000.0 0.00307657802477479 0.0005034577916376293
5336000000.0 0.002384766936302185 -0.0020796856842935085
5340000000.0 -0.0001263230515178293 -0.0030639192555099726
5344000000.0 -0.002465547062456608 -0.0018600565381348133
5348000000.0 -0.002944382606074214 0.0007404977804981172
5352000000.0 -0.0013115095207467675 0.0028762028086930513
5356000000.0 0.0013021323829889297 0.0029354963917285204
5360000000.0 0.0031423824839293957 0.0008522816351614892
5364000000.0 0.0025656658690422773 -0.0018800534307956696
5368000000.0 0.0001864658552221954 -0.0032327293884009123
5372000000.0 -0.00252589606679976 -0.002148266416043043
5376000000.0 -0.003238540142774582 0.0005094197113066912
5380000000.0 -0.0016299955314025283 0.00282340869307518
5384000000.0 0.0010632993653416634 0.0030985118355602026
5388000000.0 0.0032258450519293547 0.0009861710714176297
5392000000.0 0.0028507555834949017 -0.0018609079997986555
5396000000.0 0.000306405097944662 -0.0033451104536652565
5400000000.0 -0.002525519812479615 -0.0023986767046153545
5404000000.0 -0.0034564342349767685 0.0004592838231474161
5408000000.0 -0.001804690808057785 0.0029638437554240227
5412000000.0 0.0012012815568596125 0.0032527493312954903
5416000000.0 0.003345252014696598 0.0011715233558788896
5420000000.0 0.0030323327518999577 -0.0018638628534972668
5424000000.0 0.00034151971340179443 -0.003627500031143427
5428000000.0 -0.002571408636868 -0.00253881374374032
5432000000.0 -0.0036914057563990355 0.00039137026760727167
5436000000.0 -0.0020625051110982895 0.003250834532082081
5440000000.0 0.0011891273315995932 0.003471297910436988
5444000000.0 0.00362072023563087 0.0012841254938393831
5448000000.0 0.003240111516788602 -0.002052163938060403
5452000000.0 0.0004267489130143076 -0.003811577335000038
5456000000.0 -0.0028158221393823624 -0.002594051184132695
5460000000.0 -0.003792728064581752 0.0005319504998624325
5464000000.0 -0.0018931369995698333 0.0033947823103517294
5468000000.0 0.0014949844917282462 0.0035552876070141792
5472000000.0 0.0037305080331861973 0.0008816528134047985
5476000000.0 0.0031324541196227074 -0.002332149539142847
5480000000.0 8.724921644898131e-05 -0.003914578817784786
5484000000.0 -0.0029516832437366247 -0.0023808754049241543
5488000000.0 -0.0037251042667776346 0.0008655912824906409
5492000000.0 -0.0016605909913778305 0.003398703411221504
5496000000.0 0.0016479240730404854 0.0033076368272304535
5500000000.0 0.003649296937510371 0.0007321005105040967
5504000000.0 0.002853552345186472 -0.0024861611891537905
5508000000.0 -0.00013404116907622665 -0.003707718336954713
5512000000.0 -0.002973905298858881 -0.0020323588978499174
5516000000.0 -0.003483882173895836 0.0010100784711539745
5520000000.0 -0.001403419184498489 0.0032356216106563807
5524000000.0 0.0016603450058028102 0.003085726872086525
5528000000.0 0.0033711320720613003 0.0005698867607861757
5532000000.0 0.002571800723671913 -0.0022515770979225636
5536000000.0 -0.0003304273704998195 -0.0034428113140165806
5540000000.0 -0.0028706907760351896 -0.0018844621954485774
5544000000.0 -0.0031790516804903746 0.0009519332670606673
5548000000.0 -0.0013372349785640836 0.0030247471295297146
5552000000.0 0.0014847955899313092 0.002825723960995674
5556000000.0 0.0030934596434235573 0.0006167646497488022
5560000000.0 0.002221893286332488 -0.0020601304713636637
5564000000.0 -0.00015547600924037397 -0.003058231668546796
5568000000.0 -0.0025129260029643774 -0.001875359914265573
5572000000.0 -0.002927300287410617 0.0007813893025740981
5576000000.0 -0.0012556877918541431 0.0028029782697558403
5580000000.0 0.0012814877554774284 0.0025879456661641598
5584000000.0 0.0028139150235801935 0.0006568128010258079
5588000000.0 0.002252411562949419 -0.0018720305524766445
5592000000.0 6.618046609219164e-05 -0.002888606395572424
5596000000.0 -0.0022975881583988667 -0.001779985730536282
5600000000.0 -0.002817189320921898 0.0005661853356286883
5604000000.0 -0.0013638978125527501 0.002482260577380657
5608000000.0 0.0010495685273781419 0.002591607626527548
5612000000.0 0.0026646810583770275 0.0007253913790918887
5616000000.0 0.0021477520931512117 -0.0015063465107232332
5620000000.0 0.00026862529921345413 -0.002756300149485469
5624000000.0 -0.0019782022573053837 -0.0018612168496474624
5628000000.0 -0.0026890388689935207 0.000405698549002409
5632000000.0 -0.0014150406932458282 0.002331386087462306
5636000000.0 0.0009168529068119824 0.0025776256807148457
5640000000.0 0.002523454837501049 0.000961163139436394
5644000000.0 0.0023518260568380356 -0.0013774519320577383
5648000000.0 0.0005060614203102887 -0.0027624063659459352
5652000000.0 -0.0018585813231766224 -0.0020876789931207895
5656000000.0 -0.00271867448464036 0.00024371116887778044
5660000000.0 -0.0015433193184435368 0.0021872816141694784
5664000000.0 0.0007218056125566363 0.0026860330253839493
5668000000.0 0.0024953747633844614 0.001054628868587315
5672000000.0 0.0025139532517641783 -0.0012532152468338609
5676000000.0 0.0005802841624245048 -0.0026461330708116293
5680000000.0 -0.0017453825566917658 -0.0020919297821819782
5684000000.0 -0.0028849400114268064 3.1996228244679514e-06
5688000000.0 -0.001727895112708211 0.002239433117210865
5692000000.0 0.000731123611330986 0.0027287413831800222
5696000000.0 0.0025099553167819977 0.001244634622707963
5700000000.0 0.0026191305369138718 -0.001296764356084168
5704000000.0 0.0006938314763829112 -0.002753309439867735
5708000000.0 -0.0017138698603957891 -0.0023511825129389763
5712000000.0 -0.0028056155424565077 1.722609522403218e-05
5716000000.0 -0.0018733759643509984 0.0021895088721066713
5720000000.0 0.0005374681204557419 0.0027646790258586407
5724000000.0 0.002652299590408802 0.0012933786492794752
5728000000.0 0.0027241504285484552 -0.0011302279308438301
5732000000.0 0.0007651472697034478 -0.00287181930616498
5736000000.0 -0.0018596131121739745 -0.002329540904611349
5740000000.0 -0.002906897570937872 8.349070412805304e-05
5744000000.0 -0.0018043374875560403 0.002257872838526964
5748000000.0 0.0006751858745701611 0.002977369586005807
5752000000.0 0.0026388114783912897 0.001308288425207138
5756000000.0 0.0027037267573177814 -0.0013848617672920227
5760000000.0 0.0007299066637642682 -0.0029104517307132483
5764000000.0 -0.0018823350546881557 -0.002337724668905139
5768000000.0 -0.0029811812564730644 -8.137436816468835e-05
5772000000.0 -0.0018756008939817548 0.0022914421278983355
5776000000.0 0.0006586062954738736 0.0028406104538589716
5780000000.0 0.0027381472755223513 0.0011487052543088794
5784000000.0 0.002633329713717103 -0.001380072790198028
5788000000.0 0.0005131380748935044 -0.0029490175656974316
5792000000.0 -0.002012693090364337 -0.002290785312652588
5796000000.0 -0.0029591822531074286 0.0003170851559843868
5800000000.0 -0.0016556313494220376 0.002474395092576742
5804000000.0 0.000970994122326374 0.0027713512536138296
5808000000.0 0.0026583957951515913 0.0009375575464218855
5812000000.0 0.002414464484900236 -0.0015072328969836235
5816000000.0 0.00034805710311047733 -0.002803629031404853
5820000000.0 -0.0020120313856750727 -0.001898459973745048
5824000000.0 -0.002719451440498233 0.0003573469293769449
5828000000.0 -0.0014773233560845256 0.002364948159083724
5832000000.0 0.0010013250866904855 0.002562160836532712
5836000000.0 0.0026469561271369457 0.0008006934658624232
5840000000.0 0.002049211412668228 -0.0013436266453936696
5844000000.0 0.00012761190009769052 -0.002573825651779771
5848000000.0 -0.0017839600332081318 -0.0016806548228487372
5852000000.0 -0.0024581451434642076 0.0003755256184376776
5856000000.0 -0.001211903290823102 0.002100263489410281
5860000000.0 0.0008219514857046306 0.002255274448543787
5864000000.0 0.0022092387080192566 0.0007713655941188335
5868000000.0 0.0019294042140245438 -0.0012786091538146138
5872000000.0 0.00029104622080922127 -0.0023495564237236977
5876000000.0 -0.001608372083865106 -0.0015765841817483306
5880000000.0 -0.0022472694981843233 0.00018948584329336882
5884000000.0 -0.0012508543441072106 0.0017785612726584077
5888000000.0 0.0007277139811776578 0.002056189114227891
5892000000.0 0.002026270842179656 0.0007918183109723032
5896000000.0 0.0018865473102778196 -0.0011185695184394717
5900000000.0 0.00041167769813910127 -0.0021010388154536486
5904000000.0 -0.0014538511168211699 -0.0015493629034608603
5908000000.0 -0.002088069450110197 6.921033491380513e-05
5912000000.0 -0.001146952505223453 0.0017571821808815002
5916000000.0 0.0005158125422894955 0.002013896591961384
5920000000.0 0.001885191653855145 0.0008243706542998552
5924000000.0 0.0019040376646444201 -0.0009708881843835115
5928000000.0 0.0005796212935820222 -0.0019321292638778687
5932000000.0 -0.0011795652098953724 -0.0015830971533432603
5936000000.0 -0.002118926728144288 -0.00010017431486630812
5940000000.0 -0.001389028038829565 0.0014617783017456532
5944000000.0 0.0002998750424012542 0.0020486570429056883
5948000000.0 0.001879171235486865 0.0010318062268197536
5952000000.0 0.0019037268357351422 -0.0007509750430472195
5956000000.0 0.0006433503585867584 -0.0020234892144799232
5960000000.0 -0.0010938906343653798 -0.0016545378603041172
5964000000.0 -0.002027215901762247 -7.767094939481467e-05
5968000000.0 -0.0013762308517470956 0.0014354437589645386
5972000000.0 0.00023511439212597907 0.0019744832534343004
5976000000.0 0.001674019731581211 0.001182318083010614
5980000000.0 0.001868121325969696 -0.0006511345272883773
5984000000.0 0.000725270772818476 -0.0018785381689667702
5988000000.0 -0.0009879863355308771 -0.0017781174974516034
5992000000.0 -0.0020126081071794033 -0.000421952543547377
5996000000.0 -0.0015250181313604116 0.001315406640060246
6000000000.0 2.6046400307677686e-05 0.0020699077285826206
6004000000.0 0.0017296384321525693 0.0012645043898373842
6008000000.0 0.0021260154899209738 -0.00048065566807053983
6012000000.0 0.0008735041483305395 -0.0020456279162317514
6016000000.0 -0.0011118133552372456 -0.0019440064206719398
6020000000.0 -0.002186899771913886 -0.0004174852801952511
6024000000.0 -0.0016529231797903776 0.0014263240154832602
6028000000.0 0.00010815038695000112 0.0023068422451615334
6032000000.0 0.0018333112820982933 0.001317279995419085
6036000000.0 0.0021829267498105764 -0.0005154215614311397
6040000000.0 0.0008998361881822348 -0.002114859176799655
6044000000.0 -0.001145193469710648 -0.0020416462793946266
6048000000.0 -0.002355366013944149 -0.0003974944993387908
6052000000.0 -0.0017635597614571452 0.0016292872605845332
6056000000.0 0.00012796673399861902 0.0024168682284653187
6060000000.0 0.0020366553217172623 0.0014397919876500964
6064000000.0 0.0024511748924851418 -0.0007296716212294996
6068000000.0 0.0008335669408552349 -0.0023470609448850155
6072000000.0 -0.0012906596530228853 -0.0021406281739473343
6076000000.0 -0.002537490800023079 -0.00022364783217199147
6080000000.0 -0.001807770342566073 0.0017576164100319147
6084000000.0 0.0003877983253914863 0.0023788982070982456
6088000000.0 0.0021407296881079674 0.0012483218451961875
6092000000.0 0.0022608160506933928 -0.000820361019577831
6096000000.0 0.0007320809527300298 -0.002358565106987953
6100000000.0 -0.0013450875412672758 -0.0020303470082581043
6104000000.0 -0.002379058627411723 -0.00018245534738525748
6108000000.0 -0.001686404342763126 0.001851844834163785
6112000000.0 0.0003882851160597056 0.0023912580218166113
6116000000.0 0.0021965601481497288 0.0012090381933376193
6120000000.0 0.0022469647228717804 -0.0010201880941167474
6124000000.0 0.0005806961562484503 -0.0024601214099675417
6128000000.0 -0.0015858156839385629 -0.0019364891340956092
6132000000.0 -0.0023641828447580338 -3.5455177567200735e-05
6136000000.0 -0.0014575262321159244 0.0018548158695921302
6140000000.0 0.0005529577028937638 0.0023665891494601965
6144000000.0 0.00215960294008255 0.0010006489465013146
6148000000.0 0.0020848324056714773 -0.0010833709966391325
6152000000.0 0.000389541732147336 -0.0023256568238139153
6156000000.0 -0.0015352265909314156 -0.001735219033434987
6160000000.0 -0.002432913053780794 0.00011097778769908473
6164000000.0 -0.001392542035318911 0.0017689563101157546
6168000000.0 0.000579942250624299 0.0021857053507119417
6172000000.0 0.002061583334580064 0.0008618850260972977
6176000000.0 0.0019011665135622025 -0.0010320068104192615
6180000000.0 0.0003386618918739259 -0.0021338402293622494
6184000000.0 -0.0014791390858590603 -0.001827393425628543
6188000000.0 -0.0022210932802408934 0.00011076060036430135
6192000000.0 -0.0012795990332961082 0.0017663177568465471
6196000000.0 0.0005260538891889155 0.002080709207803011
6200000000.0 0.0019266324816271663 0.0008925100555643439
6204000000.0 0.0020191106013953686 -0.0008142980514094234
6208000000.0 0.000543937087059021 -0.002124886028468609
6212000000.0 -0.0013508955016732216 -0.0017984064761549234
6216000000.0 -0.002200501272454858 -0.0001430996780982241
6220000000.0 -0.0014717852463945746 0.0016403227346017957
6224000000.0 0.00044806787627749145 0.002146930666640401
6228000000.0 0.0018630856648087502 0.001088621560484171
6232000000.0 0.0020288482774049044 -0.0008718689205124974
6236000000.0 0.0006029221694916487 -0.0021020977292209864
6240000000.0 -0.0012891325168311596 -0.0018123785266652703
6244000000.0 -0.002204777440056205 -9.389653860125691e-05
6248000000.0 -0.0014400561340153217 0.001603879383765161
6252000000.0 0.0003132231649942696 0.002091736067086458
6256000000.0 0.0019222889095544815 0.0010591748869046569
6260000000.0 0.0020159559790045023 -0.0007587908185087144
6264000000.0 0.0006934338016435504 -0.0020912601612508297
6268000000.0 -0.0012977219885215163 -0.001994097139686346
6272000000.0 -0.002251290250569582 -0.00020449806470423937
6276000000.0 -0.0016152635216712952 0.001595789915882051
6280000000.0 0.00030765411793254316 0.0022721774876117706
6284000000.0 0.0019471585983410478 0.0010815816931426525
6288000000.0 0.0022502457723021507 -0.0007797662983648479
6292000000.0 0.0005976032698526978 -0.0021980043966323137
6296000000.0 -0.001312661450356245 -0.0019462620839476585
6300000000.0 -0.002289589261636138 -0.00020063556439708918
6304000000.0 -0.0015590856783092022 0.0016751301009207964
6308000000.0 0.00030024125589989126 0.0023368606343865395
6312000000.0 0.002026522997766733 0.0011841895757243037
6316000000.0 0.0021561284083873034 -0.0007777111604809761
6320000000.0 0.0007117491913959384 -0.0022488627582788467
6324000000.0 -0.001461964682675898 -0.0019476766465231776
6328000000.0 -0.0023484525736421347 -0.00017340743215754628
6332000000.0 -0.0016778286080807447 0.0018075420521199703
6336000000.0 0.0004078670754097402 0.00247092149220407
6340000000.0 0.002170739695429802 0.0012022826122120023
6344000000.0 0.002249262062832713 -0.0009693739120848477
6348000000.0 0.0007184384157881141 -0.0024255651514977217
6352000000.0 -0.001515846000984311 -0.0021225479431450367
6356000000.0 -0.0025624819099903107 -4.008852192782797e-05
6360000000.0 -0.0016848585801199079 0.002052626106888056
6364000000.0 0.0005285364459268749 0.0024733736645430326
6368000000.0 0.0023724695201963186 0.0011188134085386992
6372000000.0 0.0023203573655337095 -0.0012041686568409204
6376000000.0 0.0005668742815032601 -0.0026638454291969538
6380000000.0 -0.0016762865707278252 -0.00206262175925076
6384000000.0 -0.002650853944942355 0.00017254968406632543
6388000000.0 -0.0015124449273571372 0.002140330383554101
6392000000.0 0.0005860372330062091 0.0024790577590465546
6396000000.0 0.002327584195882082 0.001008042600005865
6400000000.0 0.002196901710703969 -0.0012145095970481634
6404000000.0 0.0004695560201071203 -0.0025196962524205446
6408000000.0 -0.0016645133728161454 -0.0019473310094326735
6412000000.0 -0.0025116836186498404 0.00012794228678103536
6416000000.0 -0.0015285973204299808 0.0020030129235237837
6420000000.0 0.0007221486885100603 0.0025765257887542248
6424000000.0 0.0023962585255503654 0.0009681925876066089
6428000000.0 0.0023100103717297316 -0.0012582996860146523
6432000000.0 0.0004485323734115809 -0.002674120245501399
6436000000.0 -0.0017620467115193605 -0.001951136626303196
6440000000.0 -0.0026213652454316616 0.0003596253809519112
6444000000.0 -0.0013588896254077554 0.0022592595778405666
6448000000.0 0.0008963977452367544 0.002350884024053812
6452000000.0 0.0023729081731289625 0.0007679416448809206
6456000000.0 0.002048393012955785 -0.001379747991450131
6460000000.0 0.000187995596206747 -0.002448858693242073
6464000000.0 -0.0017439690418541431 -0.0017350863199681044
6468000000.0 -0.0024627819657325745 0.00027845753356814384
6472000000.0 -0.0014209132641553879 0.002085841028019786
6476000000.0 0.0008222003234550357 0.002299160696566105
6480000000.0 0.00228203646838665 0.0007981596863828599
6484000000.0 0.0021093408577144146 -0.0012963045155629516
6488000000.0 0.00022721935238223523 -0.0025000933092087507
6492000000.0 -0.0017724484205245972 -0.0017331785056740046
6496000000.0 -0.002375316806137562 0.00030230640550144017
6500000000.0 -0.0011801854707300663 0.0020380245987325907
6504000000.0 0.0008583672461099923 0.0021839195396751165
6508000000.0 0.002163445111364126 0.0006668965215794742
6512000000.0 0.0018630014965310693 -0.0011303777573630214
6516000000.0 0.0002908608003053814 -0.0022451779805123806
6520000000.0 -0.0015037267003208399 -0.0016636374639347196
6524000000.0 -0.0021774775814265013 0.00017645912885200232
6528000000.0 -0.0012471737572923303 0.0017948560416698456
6532000000.0 0.0006665923865512013 0.0020526391454041004
6536000000.0 0.0021411695051938295 0.0008914668578654528
6540000000.0 0.0020422490779310465 -0.000969494809396565
6544000000.0 0.0005205866764299572 -0.0023082117550075054
6548000000.0 -0.0014155309181660414 -0.0018241449724882841
6552000000.0 -0.0022234483622014523 -3.999513864982873e-05
6556000000.0 -0.001408005366101861 0.0016570539446547627
6560000000.0 0.0004896250320598483 0.0021966062486171722
6564000000.0 0.00198839558288455 0.0011102523421868682
6568000000.0 0.0020607016049325466 -0.0009671675506979227
6572000000.0 0.0006423011072911322 -0.0022954039741307497
6576000000.0 -0.001265520229935646 -0.0018132817931473255
6580000000.0 -0.002322831191122532 -0.00011050984903704375
6584000000.0 -0.0015611975686624646 0.0017611132934689522
6588000000.0 0.0003615260065998882 0.0023997423704713583
6592000000.0 0.002192416926845908 0.0011423822725191712
6596000000.0 0.0021457180846482515 -0.000974043330643326
6600000000.0 0.0005909422761760652 -0.002335395198315382
6604000000.0 -0.0014394109603017569 -0.0018707159906625748
6608000000.0 -0.0023502467665821314 -2.8124799428042024e-05
6612000000.0 -0.0016031689010560513 0.0017109229229390621
6616000000.0 0.0003720465465448797 0.0023250195663422346
6620000000.0 0.0020801161881536245 0.0012346699368208647
6624000000.0 0.002215411514043808 -0.0007760083535686135
6628000000.0 0.0007800572784617543 -0.0022911792621016502
6632000000.0 -0.0013263981090858579 -0.0020119682885706425
6636000000.0 -0.002570481738075614 -0.0002956294338218868
6640000000.0 -0.0018440189305692911 0.001721321837976575
6644000000.0 0.00030619834433309734 0.0025340362917631865
6648000000.0 0.002397983567789197 0.001356778433546424
6652000000.0 0.0023941658437252045 -0.0009555075666867197
6656000000.0 0.0006530579994432628 -0.0025543817318975925
6660000000.0 -0.0015821843408048153 -0.002097019227221608
6664000000.0 -0.0026767211966216564 -0.00010700851998990402
6668000000.0 -0.001587492530234158 0.0019612815231084824
6672000000.0 0.00057955615920946 0.002515406347811222
6676000000.0 0.0023407002445310354 0.0011531675700098276
6680000000.0 0.0023852705489844084 -0.0009960747556760907
6684000000.0 0.0006088549271225929 -0.0024513513781130314
6688000000.0 -0.0015866924077272415 -0.002071181545034051
6692000000.0 -0.002643769606947899 -0.0001287823251914233
6696000000.0 -0.0017202594317495823 0.002047324553132057
6700000000.0 0.00048662652261555195 0.00269566522911191
6704000000.0 0.0023855939507484436 0.001205526408739388
6708000000.0 0.0025780617725104094 -0.001179628656245768
6712000000.0 0.0005601897137239575 -0.002616230631247163
6716000000.0 -0.0017085066065192223 -0.002071534749120474
6720000000.0 -0.002664160681888461 -4.9698512157192454e-05
6724000000.0 -0.001581316813826561 0.0020645149052143097
6728000000.0 0.0005641467869281769 0.0025015019346028566
6732000000.0 0.0022560120560228825 0.0011799790663644671
6736000000.0 0.0022554141469299793 -0.001031853025779128
6740000000.0 0.0006633636658079922 -0.002332399133592844
6744000000.0 -0.0013011721894145012 -0.002053772332146764
6748000000.0 -0.002580431755632162 -0.0002353526942897588
6752000000.0 -0.001796881901100278 0.0018881583819165826
6756000000.0 0.00037303398130461574 0.0025999571662396193
6760000000.0 0.00222591869533062 0.0012588563840836287
6764000000.0 0.0024083536118268967 -0.0010405451757833362
6768000000.0 0.0007342459284700453 -0.0024272112641483545
6772000000.0 -0.0015089799417182803 -0.0020205527544021606
6776000000.0 -0.002463345881551504 -0.00013680453412234783
6780000000.0 -0.0017174347303807735 0.001845715451054275
6784000000.0 0.00023800328199286014 0.002479460323229432
6788000000.0 0.0021450635977089405 0.0011927663581445813
6792000000.0 0.002376334508880973 -0.0008135142852552235
6796000000.0 0.0007730131037533283 -0.002333223121240735
6800000000.0 -0.001289286301471293 -0.002032487653195858
6804000000.0 -0.0025141146034002304 -0.0001814268180169165
6808000000.0 -0.0017083273269236088 0.001872735796496272
6812000000.0 0.0002460426476318389 0.002578496001660824
6816000000.0 0.002156102331355214 0.0013167127035558224
6820000000.0 0.0024152060505002737 -0.0007066765683703125
6824000000.0 0.0009289905428886414 -0.0024094833061099052
6828000000.0 -0.0012690232833847404 -0.0020743622444570065
6832000000.0 -0.0024926671758294106 -0.0003825963649433106
6836000000.0 -0.0018209038535133004 0.0017368914559483528
6840000000.0 0.0002331485302420333 0.0025285398587584496
6844000000.0 0.0020267453510314226 0.0014973506331443787
6848000000.0 0.002367969136685133 -0.0007003817590884864
6852000000.0 0.0010624061105772853 -0.002427649451419711
6856000000.0 -0.0013443338684737682 -0.0022333506494760513
6860000000.0 -0.0025670756585896015 -0.0003790564078371972
6864000000.0 -0.0019875545985996723 0.0017294046701863408
6868000000.0 7.973013998707756e-05 0.00266116950660944
6872000000.0 0.0021201386116445065 0.0014047457370907068
6876000000.0 0.00263364240527153 -0.0007844455540180206
6880000000.0 0.0008840818190947175 -0.002469647442921996
6884000000.0 -0.0014059069799259305 -0.0022119847126305103
6888000000.0 -0.002512307371944189 -0.0003092877450399101
6892000000.0 -0.0018878364935517311 0.0018047302728518844
6896000000.0 0.00015171102131716907 0.0025964919477701187
6900000000.0 0.002122873906046152 0.0014290132094174623
6904000000.0 0.002535703592002392 -0.0006331611075438559
6908000000.0 0.00103282171767205 -0.002375733805820346
6912000000.0 -0.0013155067572370172 -0.002374407136812806
6916000000.0 -0.0026086289435625076 -0.00036836450453847647
6920000000.0 -0.0019346631597727537 0.0018924435134977102
6924000000.0 0.0002412413596175611 0.0027706956025213003
6928000000.0 0.002365208463743329 0.0014584236778318882
6932000000.0 0.0026587038300931454 -0.0010420880280435085
6936000000.0 0.00080493075074628 -0.002726244740188122
6940000000.0 -0.0015624483348801732 -0.002211540937423706
6944000000.0 -0.0026655306573957205 -7.016093150014058e-05
6948000000.0 -0.0018063290044665337 0.0019952801521867514
6952000000.0 0.00039905362064018846 0.0025701094418764114
6956000000.0 0.0022255443036556244 0.0012903196038678288
6960000000.0 0.002433589193969965 -0.0008274000138044357
6964000000.0 0.0008654907578602433 -0.0025525426026433706
6968000000.0 -0.001404952141456306 -0.002272764453664422
6972000000.0 -0.002637630794197321 -0.00025237989029847085
6976000000.0 -0.0019190008752048016 0.0019508800469338894
6980000000.0 0.0003095354186370969 0.0025856357533484697
6984000000.0 0.002406518440693617 0.0013349112123250961
6988000000.0 0.0025777658447623253 -0.000996489659883082
6992000000.0 0.0006376322126016021 -0.0026431179139763117
6996000000.0 -0.0017012017779052258 -0.0021837169770151377
7000000000.0 -0.0027111186645925045 2.800449510687031e-05
7004000000.0 -0.001610416336916387 0.0020678010769188404
7008000000.0 0.0006362987915053964 0.0026278963778167963
7012000000.0 0.0023364268708974123 0.001054214546456933
7016000000.0 0.0022442922927439213 -0.0012083807960152626
7020000000.0 0.0005339469062164426 -0.002529691904783249
7024000000.0 -0.0016533778980374336 -0.001965285511687398
7028000000.0 -0.002528312150388956 0.0001339485461357981
7032000000.0 -0.0015283299144357443 0.0019260573899373412
7036000000.0 0.0005671348189935088 0.002385188592597842
7040000000.0 0.002212178660556674 0.0010683339787647128
7044000000.0 0.002130938461050391 -0.0010889389086514711
7048000000.0 0.0005320894415490329 -0.0022923126816749573
7052000000.0 -0.0014516517985612154 -0.0018810974434018135
7056000000.0 -0.0022809994406998158 2.368148670939263e-05
7060000000.0 -0.0013661652337759733 0.0018742237007245421
7064000000.0 0.00042586380732245743 0.0022448606323450804
7068000000.0 0.0019899075850844383 0.001021729432977736
7072000000.0 0.002003480214625597 -0.0009217060287483037
7076000000.0 0.0005735247978009284 -0.0021551677491515875
7080000000.0 -0.001337479567155242 -0.001701033441349864
7084000000.0 -0.002143800724297762 -9.656318070483394e-06
7088000000.0 -0.0012845349265262485 0.0015503383474424481
7092000000.0 0.0004694464441854507 0.0020274531561881304
7096000000.0 0.0018992952536791563 0.0009504617191851139
7100000000.0 0.001938830129802227 -0.0008731289999559522
7104000000.0 0.0005259655299596488 -0.00200824486091733
7108000000.0 -0.0012056026607751846 -0.0017173128435388207
7112000000.0 -0.0020346783567219973 -7.925427053123713e-05
7116000000.0 -0.0013613379560410976 0.0014648409560322762
7120000000.0 0.0002758819318842143 0.002039546612650156
7124000000.0 0.0017569047631695867 0.0009864786406978965
7128000000.0 0.0018727511633187532 -0.0007327336352318525
7132000000.0 0.0006045164773240685 -0.0019089572597295046
7136000000.0 -0.0011010320158675313 -0.001628977246582508
7140000000.0 -0.0019573902245610952 -0.00012770533794537187
7144000000.0 -0.0013503283262252808 0.0015085055492818356
7148000000.0 0.0002792677260003984 0.001994634512811899
7152000000.0 0.0016373249236494303 0.0009222521912306547
7156000000.0 0.0017532564233988523 -0.0005669005331583321
7160000000.0 0.0006313741323538125 -0.0019226529402658343
7164000000.0 -0.0009976791916415095 -0.0016426013316959143
7168000000.0 -0.001862334436737001 -0.000189115758985281
7172000000.0 -0.0013841004110872746 0.0012939927401021123
7176000000.0 8.83491084096022e-05 0.0019320739666000009
7180000000.0 0.00164028350263834 0.0011984426528215408
7184000000.0 0.0018908174242824316 -0.0005293828435242176
7188000000.0 0.0007384315249510109 -0.0019227233715355396
7192000000.0 -0.0009293166804127395 -0.001727939466945827
7196000000.0 -0.00200629816390574 -0.00034189506550319493
7200000000.0 -0.0015316198114305735 0.0013896184973418713
7204000000.0 0.00016133153985720128 0.00206170417368412
7208000000.0 0.0016761436127126217 0.001181652769446373
7212000000.0 0.00198408798314631 -0.0006749676540493965
7216000000.0 0.0007909164414741099 -0.0020100411493331194
7220000000.0 -0.0011607366614043713 -0.0018408613977953792
7224000000.0 -0.002134247450158 -0.00033767521381378174
7228000000.0 -0.0013967329869046807 0.0015472290106117725
7232000000.0 0.0002747998805716634 0.0022552311420440674
7236000000.0 0.0020136169623583555 0.0011900082463398576
7240000000.0 0.002118529984727502 -0.0008816059562377632
7244000000.0 0.0006096195429563522 -0.0023235552944242954
7248000000.0 -0.0013605196727439761 -0.0018153339624404907
7252000000.0 -0.00230235094204545 3.3629425161052495e-05
7256000000.0 -0.0013699240516871214 0.0018582859775051475
7260000000.0 0.0006363465799950063 0.0022212353069335222
7264000000.0 0.0020170302595943213 0.0007677968242205679
7268000000.0 0.001978644635528326 -0.0012312188046053052
7272000000.0 0.0001668469194555655 -0.0022339969873428345
7276000000.0 -0.0015942394966259599 -0.0015652865404263139
7280000000.0 -0.002191719599068165 0.0003480955201666802
7284000000.0 -0.0009561644401401281 0.0019179378869011998
7288000000.0 0.0009624322410672903 0.0019256314262747765
7292000000.0 0.0020127862226217985 0.0004886708920821548
7296000000.0 0.0014386451803147793 -0.001267594750970602
7300000000.0 -8.855270425556228e-05 -0.0019068139372393489
7304000000.0 -0.0015907030319795012 -0.0010203103302046657
7308000000.0 -0.001707807183265686 0.0005982592119835317
7312000000.0 -0.0005478386883623898 0.0015924687031656504
7316000000.0 0.0008175732218660414 0.0013991447631269693
7320000000.0 0.0015893083764240146 0.0002148426283383742
7324000000.0 0.0011820762883871794 -0.0010891578858718276
7328000000.0 -0.0001002355056698434 -0.0014841329539194703
7332000000.0 -0.0012282143579795957 -0.0007850702968426049
7336000000.0 -0.001438618521206081 0.00044083790271542966
7340000000.0 -0.0005170929944142699 0.001260946155525744
7344000000.0 0.0007107986020855606 0.0012492073001340032
7348000000.0 0.0014389954740181565 0.000217971668462269
7352000000.0 0.0009716522181406617 -0.0008346050744876266
7356000000.0 -9.42242841119878e-05 -0.0012799371033906937
7360000000.0 -0.0009581563645042479 -0.0007027621613815427
7364000000.0 -0.001111971796490252 0.00033692497527226806
7368000000.0 -0.0004852314305026084 0.000988252111710608
7372000000.0 0.0004604067071340978 0.0010360017186030746
7376000000.0 0.001150132855400443 0.000417867093347013
7380000000.0 0.0009193048463203013 -0.0006304972339421511
7384000000.0 0.00010739774006651714 -0.0011015478521585464
7388000000.0 -0.0007778081926517189 -0.0007694954983890057
7392000000.0 -0.0011761466739699244 9.041865996550769e-05
7396000000.0 -0.0007032127468846738 0.0008838482899591327
7400000000.0 0.0003093249106314033 0.0010525670368224382
7404000000.0 0.0009177617612294853 0.0005017583025619388
7408000000.0 0.0008962681167759001 -0.0004950049333274364
7412000000.0 0.00023301946930587292 -0.0010534483008086681
7416000000.0 -0.000692941015586257 -0.0007870568661019206
7420000000.0 -0.0010996479541063309 -3.0142617106321268e-05
7424000000.0 -0.0006556163425557315 0.0007375950226560235
7428000000.0 0.00013260926061775535 0.001036528148688376
7432000000.0 0.0009133890853263438 0.000524854869581759
7436000000.0 0.000962299294769764 -0.0003871684311889112
7440000000.0 0.00029579902184195817 -0.001010885345749557
7444000000.0 -0.000572861812543124 -0.0009816533420234919
7448000000.0 -0.0011338446056470275 -0.0001423252106178552
7452000000.0 -0.0007476822356693447 0.0007866719388402998
7456000000.0 4.6236029447754845e-05 0.0010867394739761949
7460000000.0 0.0009669116698205471 0.0005687267403118312
7464000000.0 0.0010700719431042671 -0.00042781824595294893
7468000000.0 0.0003508701629471034 -0.0011309253750368953
7472000000.0 -0.0006315173814073205 -0.0009951073443517089
7476000000.0 -0.0011454406194388866 -0.00018394124344922602
7480000000.0 -0.0008861135574989021 0.0008347239345312119
7484000000.0 -1.693527156021446e-05 0.001251958659850061
7488000000.0 0.001175892655737698 0.0008096203091554344
7492000000.0 0.0013039453187957406 -0.00033530921791680157
7496000000.0 0.000497181317768991 -0.001344870193861425
7500000000.0 -0.0007744269096292555 -0.001266256906092167
7504000000.0 -0.0015425484161823988 -3.077141445828602e-05
7508000000.0 -0.0009629760170355439 0.0011904395651072264
7512000000.0 0.00028855918208137155 0.0015389653854072094
7516000000.0 0.0014510462060570717 0.0006348896422423422
7520000000.0 0.0014458870282396674 -0.000839793065097183
7524000000.0 0.0001803193154046312 -0.0016246562590822577
7528000000.0 -0.0011941117700189352 -0.0012143808417022228
7532000000.0 -0.001592180342413485 0.00026756664738059044
7536000000.0 -0.0005993423983454704 0.0014189700596034527
7540000000.0 0.0007389924139715731 0.0014412972377613187
7544000000.0 0.0015319763915613294 0.00016252041677944362
7548000000.0 0.0010923771187663078 -0.0011615684488788247
7552000000.0 -0.0002725997183006257 -0.0014718607999384403
7556000000.0 -0.0013276358367875218 -0.0005970277125015855
7560000000.0 -0.0012034089304506779 0.0006570417317561805
7564000000.0 -8.080973930191249e-05 0.0013575578341260552
7568000000.0 0.0008811136358417571 0.0008804979734122753
7572000000.0 0.0011352432193234563 -0.00021986986394040287
7576000000.0 0.0004743283789139241 -0.0009817910613492131
7580000000.0 -0.0004613563942257315 -0.0009504547924734652
7584000000.0 -0.0009792073396965861 -0.00022652343614026904
7588000000.0 -0.0007458899635821581 0.0005351879517547786
7592000000.0 -4.4739739678334445e-05 0.0009353142231702805
7596000000.0 0.000708510575350374 0.0005977416294626892
7600000000.0 0.0008912443299777806 -3.134682265226729e-05
7604000000.0 0.00040458518196828663 -0.000754650856833905
7608000000.0 -0.00035500858211889863 -0.0007722105365246534
7612000000.0 -0.0006847915356047451 -0.00021491074585355818
7616000000.0 -0.0005579143762588501 0.0004558957298286259
7620000000.0 -7.423564238706604e-05 0.0006314378115348518
7624000000.0 0.0005714066210202873 0.000530302117113024
7628000000.0 0.0006216518813744187 -0.00011286073277005926
7632000000.0 0.00032197264954447746 -0.0005944711738266051
7636000000.0 -0.0002427792060188949 -0.0006158869946375489
7640000000.0 -0.0006098643643781543 -0.0002293972938787192
7644000000.0 -0.0006039494764991105 0.00023148480977397412
7648000000.0 -9.22891340451315e-05 0.0005901522235944867
7652000000.0 0.0002947504981420934 0.0004419638426043093
7656000000.0 0.0006153782596811652 5.990135468891822e-05
7660000000.0 0.0004961957456544042 -0.000402029458200559
7664000000.0 -8.620834705652669e-05 -0.000634229916613549
7668000000.0 -0.0005209532682783902 -0.00027168140513822436
7672000000.0 -0.0004993564216420054 0.0002678138844203204
7676000000.0 -9.764352580532432e-05 0.0005486789159476757
7680000000.0 0.0002769499260466546 0.0004907844704575837
7684000000.0 0.0005631312378682196 6.800163828302175e-05
7688000000.0 0.00040617890772409737 -0.000363719038432464
7692000000.0 -2.73506338999141e-05 -0.0005536034586839378
7696000000.0 -0.000357885321136564 -0.0004034389858134091
7700000000.0 -0.0004439151962287724 5.960044654784724e-05
7704000000.0 -0.000252316240221262 0.0004453720757737756
7708000000.0 0.0001474132586736232 0.0005096829263493419
7712000000.0 0.0005481773405335844 0.0001741449668770656
7716000000.0 0.0005036955117247999 -0.00016844227502588183
7720000000.0 0.00021129938249941915 -0.0005294487345963717
7724000000.0 -0.0003418276901356876 -0.00047395858564414084
7728000000.0 -0.0005935447406955063 -8.427305147051811e-05
7732000000.0 -0.00036573983379639685 0.00047851676936261356
7736000000.0 0.00011931059998460114 0.0006072521791793406
7740000000.0 0.000551564444322139 0.0003942526236642152
7744000000.0 0.0005795676843263209 -0.00022036118025425822
7748000000.0 0.00023023586254566908 -0.0005801136721856892
7752000000.0 -0.00039166896021924913 -0.0005761287757195532
7756000000.0 -0.000666147971060127 -0.00014797187759540975
7760000000.0 -0.0005355487228371203 0.0004773364053107798
7764000000.0 4.4852233259007335e-05 0.000697350362315774
7768000000.0 0.0006571724079549313 0.00034614698961377144
7772000000.0 0.0007420204346999526 -0.00021138510783202946
7776000000.0 0.00035714739351533353 -0.0007901407079771161
7780000000.0 -0.00045990070793777704 -0.000766920973546803
7784000000.0 -0.0009761673863977194 -9.677274647401646e-05
7788000000.0 -0.0005657465080730617 0.0007151784375309944
7792000000.0 0.00017311899864580482 0.0009355200454592705
7796000000.0 0.0008696565055288374 0.00044890373828820884
7800000000.0 0.0009077509748749435 -0.0004156238865107298
7804000000.0 0.00011107379395980388 -0.000993893831036985
7808000000.0 -0.0007570874295197427 -0.0006519301678054035
7812000000.0 -0.0010023557115346193 0.00021959302830509841
7816000000.0 -0.00024946744088083506 0.0009786902228370309
7820000000.0 0.0005757480976171792 0.0008458973607048392
7824000000.0 0.0009177451720461249 -3.70526613551192e-05
7828000000.0 0.0004919602652080357 -0.0007598687661811709
7832000000.0 -0.0002591251686681062 -0.0008715356816537678
7836000000.0 -0.0006774887442588806 -0.0003600535274017602
7840000000.0 -0.0006522263865917921 0.00037769059417769313
7844000000.0 -0.00013210684119258076 0.0006600904162041843
7848000000.0 0.0005168987554498017 0.0004429765685927123
7852000000.0 0.0006612357101403177 -0.00015583948697894812
7856000000.0 0.000298730970826 -0.0004981728852726519
7860000000.0 -0.00021426235616672784 -0.0005647718789987266
7864000000.0 -0.0005101438728161156 -0.0001662050635786727
7868000000.0 -0.0004511565202847123 0.00021984132763464004
7872000000.0 -0.00010783067409647629 0.0005199434235692024
7876000000.0 0.00038261202280409634 0.0004103007959201932
7880000000.0 0.0004937247140333056 2.8701595510938205e-05
7884000000.0 0.00028187301359139383 -0.0004058629274368286
7888000000.0 -0.0001763299951562658 -0.00048728406545706093
7892000000.0 -0.000339494610670954 -0.00017591900541447103
7896000000.0 -0.0003631873696576804 0.0001537070784252137
7900000000.0 -0.00013158321962691844 0.000315910205245018
7904000000.0 0.00022488417744170874 0.0002724180230870843
7908000000.0 0.0003358786052558571 4.502433057496091e-06
7912000000.0 0.0003013532259501517 -0.00024074161774478853
7916000000.0 -3.3641510526649654e-05 -0.00037364911986514926
7920000000.0 -0.00032394766458310187 -0.0003332466585561633
7924000000.0 -0.0003604362718760967 3.6876077501801774e-05
7928000000.0 -0.00023677997523918748 0.000296894577331841
7932000000.0 0.00014418267528526485 0.00038142106495797634
7936000000.0 0.0003809490008279681 0.00014842110977042466
7940000000.0 0.0003405423485673964 -0.00012809652253054082
7944000000.0 0.00010827247751876712 -0.0003272139874752611
7948000000.0 -0.00019301251450087875 -0.0003495838900562376
7952000000.0 -0.00037080253241583705 -4.359762169769965e-05
7956000000.0 -0.00024169102835003287 0.00021501212904695421
7960000000.0 2.0262688849470578e-05 0.00044884224189445376
7964000000.0 0.00030531585798598826 0.00019334559328854084
7968000000.0 0.00040919019374996424 -4.840219480684027e-05
7972000000.0 0.00022588271531276405 -0.0003252941241953522
7976000000.0 -9.412612416781485e-05 -0.00036787029239349067
7980000000.0 -0.0003804225707426667 -0.00013811149983666837
7984000000.0 -0.0002822954847943038 0.000226317293709144
7988000000.0 -0.00015265349065884948 0.00043432097299955785
7992000000.0 0.00023392039292957634 0.0003205064276698977
7996000000.0 0.0003831179055850953 5.694351784768514e-05
8000000000.0 0.0002898948441725224 -0.0003760675899684429
