! Created with skrf 1.10.0 (http://scikit-rf.org).
# Hz S RI R 50.0 
!freq ReS11 ImS11
!
4000000000.0 -0.007086759898811579 0.013385128229856491
4004000000.0 0.014169794507324696 0.004957190249115229
4008000000.0 0.00248780008405447 -0.014793970622122288
4012000000.0 -0.014995425008237362 -0.00016446087101940066
4016000000.0 0.0020285826176404953 0.014960700646042824
4020000000.0 0.01448899693787098 -0.004478143062442541
4024000000.0 -0.007168730720877647 -0.013962342403829098
4028000000.0 -0.012496224604547024 0.009751110337674618
4032000000.0 0.011849294416606426 0.010577382519841194
4036000000.0 0.00830114260315895 -0.013498757965862751
4040000000.0 -0.014899592846632004 -0.005982324481010437
4044000000.0 -0.0033508245833218098 0.015723468735814095
4048000000.0 0.016149060800671577 0.0006058007711544633
4052000000.0 -0.002427257364615798 -0.016303379088640213
4056000000.0 -0.015452372841536999 0.005355702247470617
4060000000.0 0.008064232766628265 0.01404771488159895
4064000000.0 0.012186308391392231 -0.010305451229214668
4068000000.0 -0.012239730916917324 -0.010320904664695263
4072000000.0 -0.007972401566803455 0.013903317973017693
4076000000.0 0.014853253960609436 0.005316568538546562
4080000000.0 0.002710675122216344 -0.015475187450647354
4084000000.0 -0.015647539868950844 5.6337292335228994e-05
4088000000.0 0.002637850120663643 0.0151366600766778
4092000000.0 0.014265045523643494 -0.0051886350847780704
4096000000.0 -0.0073393406346440315 -0.013090968132019043
4100000000.0 -0.011402478441596031 0.009866875596344471
4104000000.0 0.011412319727241993 0.009475480765104294
4108000000.0 0.007201512344181538 -0.012627881020307541
4112000000.0 -0.013323085382580757 -0.0050758603028953075
4116000000.0 -0.002815276850014925 0.014008176513016224
4120000000.0 0.014104497618973255 0.00042127506458200514
4124000000.0 -0.0017927411245182157 -0.01384869497269392
4128000000.0 -0.013423542492091656 0.004031059332191944
4132000000.0 0.006193829700350761 0.012420053593814373
4136000000.0 0.01098380796611309 -0.00793556310236454
4140000000.0 -0.009415085427463055 -0.009571889415383339
4144000000.0 -0.007890728302299976 0.010783113539218903
4148000000.0 0.011746258474886417 0.0060952515341341496
4152000000.0 0.004160220269113779 -0.012404320761561394
4156000000.0 -0.013186720199882984 -0.0022220027167350054
4160000000.0 -0.0003410229692235589 0.013495556078851223
4164000000.0 0.01340511441230774 -0.0017878111684694886
4168000000.0 -0.003935439977794886 -0.013176653534173965
4172000000.0 -0.012265713885426521 0.005935287568718195
4176000000.0 0.0077658602967858315 0.011208160780370235
4180000000.0 0.009943023324012756 -0.009536528028547764
4184000000.0 -0.011081499047577381 -0.008262106217443943
4188000000.0 -0.006416922900825739 0.01233439426869154
4192000000.0 0.013279612176120281 0.004435718059539795
4196000000.0 0.002345460467040539 -0.014103936962783337
4200000000.0 -0.014652028679847717 0.00030468893237411976
4204000000.0 0.0028817178681492805 0.01474467571824789
4208000000.0 0.014038868248462677 -0.005526866763830185
4212000000.0 -0.00809525977820158 -0.01293864380568266
4216000000.0 -0.011249780654907227 0.010493759997189045
4220000000.0 0.012268255464732647 0.009343056939542294
4224000000.0 0.007206837181001902 -0.013821547850966454
4228000000.0 -0.015116007998585701 -0.004731411579996347
4232000000.0 -0.001916911220178008 0.015945060178637505
4236000000.0 0.01597839780151844 -0.0009583667269907892
4240000000.0 -0.004075832199305296 -0.015633363276720047
4244000000.0 -0.014410099945962429 0.006943762302398682
4248000000.0 0.009263784624636173 0.012754129245877266
4252000000.0 0.010942980647087097 -0.01145720761269331
4256000000.0 -0.012931310571730137 -0.008425437845289707
4260000000.0 -0.006036092061549425 0.01404173206537962
4264000000.0 0.014709697104990482 0.003586254082620144
4268000000.0 0.00101282203104347 -0.01490023173391819
4272000000.0 -0.014937018044292927 0.0015772824408486485
4276000000.0 0.0039326511323452 0.0141562195494771
4280000000.0 0.01330706849694252 -0.00610215263441205
4284000000.0 -0.008257688023149967 -0.011743328534066677
4288000000.0 -0.009892025031149387 0.010148894973099232
4292000000.0 0.011425819247961044 0.007940063253045082
4296000000.0 0.005735332146286964 -0.01222496759146452
4300000000.0 -0.012833497487008572 -0.003621047828346491
4304000000.0 -0.0015596718294546008 0.012894119136035442
4308000000.0 0.012654322199523449 -0.00045055823284201324
4312000000.0 -0.002325354376807809 -0.012712894007563591
4316000000.0 -0.011991467326879501 0.00431563425809145
4320000000.0 0.005944982171058655 0.011189634911715984
4324000000.0 0.010086892172694206 -0.007731872145086527
4328000000.0 -0.00911713670939207 -0.008641532622277737
4332000000.0 -0.0072087487205863 0.009922392666339874
4336000000.0 0.010873056016862392 0.0059021105989813805
4340000000.0 0.004025013651698828 -0.01167243905365467
4344000000.0 -0.012303508818149567 -0.002145863603800535
4348000000.0 -0.0002961446880362928 0.012624436989426613
4352000000.0 0.012780820950865746 -0.001898310729302466
4356000000.0 -0.0037027206271886826 -0.01225664559751749
4360000000.0 -0.011571556329727173 0.005560847464948893
4364000000.0 0.007323259953409433 0.010861065238714218
4368000000.0 0.009634352289140224 -0.009142325259745121
4372000000.0 -0.010979514569044113 -0.00829275231808424
4376000000.0 -0.006427920423448086 0.012217281386256218
4380000000.0 0.013273206539452076 0.0042875888757407665
4384000000.0 0.0022101104259490967 -0.014081927016377449
4388000000.0 -0.014532746747136116 0.0002167124330298975
4392000000.0 0.0027676275931298733 0.014624858275055885
4396000000.0 0.0145272770896554 -0.005221500527113676
4400000000.0 -0.008301903493702412 -0.013691907748579979
4404000000.0 -0.0119367316365242 0.010875383391976357
4408000000.0 0.012875011190772057 0.009571029804646969
4412000000.0 0.007288011256605387 -0.01424900721758604
4416000000.0 -0.015654457733035088 -0.004583302885293961
4420000000.0 -0.0015040608122944832 0.016143422573804855
4424000000.0 0.01626424491405487 -0.0014383328380063176
4428000000.0 -0.004572959151118994 -0.01530863530933857
4432000000.0 -0.014289868995547295 0.007101795636117458
4436000000.0 0.009692330844700336 0.012672476470470428
4440000000.0 0.01041415985673666 -0.011387848295271397
4444000000.0 -0.012827117927372456 -0.008193396963179111
4448000000.0 -0.005423267837613821 0.013817490078508854
4452000000.0 0.014300462789833546 0.002993102418258786
4456000000.0 0.0006299765082076192 -0.014726204797625542
4460000000.0 -0.014188087545335293 0.0019311491632834077
4464000000.0 0.004521419759839773 0.013703778386116028
4468000000.0 0.012229670770466328 -0.006829258985817432
4472000000.0 -0.008600086905062199 -0.010599725879728794
4476000000.0 -0.008865795098245144 0.009740923531353474
4480000000.0 0.01096650492399931 0.0074493675492703915
4484000000.0 0.005487306043505669 -0.011824814602732658
4488000000.0 -0.012474740855395794 -0.0035444432869553566
4492000000.0 -0.0016677307430654764 0.012751402333378792
4496000000.0 0.012578184716403484 -0.0004193780478090048
4500000000.0 -0.002609657822176814 -0.012385698966681957
4504000000.0 -0.011629946529865265 0.0040892306715250015
4508000000.0 0.0060500893741846085 0.010594982653856277
4512000000.0 0.009553159587085247 -0.007386683952063322
4516000000.0 -0.008702835068106651 -0.008692707866430283
4520000000.0 -0.007089570164680481 0.010144803673028946
4524000000.0 0.011352289468050003 0.005625906866043806
4528000000.0 0.0037099546752870083 -0.012139519676566124
4532000000.0 -0.012828165665268898 -0.0014466686407104135
4536000000.0 0.0005534925148822367 0.013269878923892975
4540000000.0 0.0126882866024971 -0.0025671180337667465
4544000000.0 -0.004497939720749855 -0.012064394541084766
4548000000.0 -0.011268898844718933 0.006565034855157137
4552000000.0 0.008323491550981998 0.010623577050864697
4556000000.0 0.009156891144812107 -0.009821322746574879
4560000000.0 -0.011568492278456688 -0.007725443225353956
4564000000.0 -0.005551280919462442 0.013066139072179794
4568000000.0 0.014306509867310524 0.0031919695902615786
4572000000.0 0.0004635151126421988 -0.014657553285360336
4576000000.0 -0.014830485917627811 0.0018706601113080978
4580000000.0 0.004816737025976181 0.013877996243536472
4584000000.0 0.012899255380034447 -0.007321156561374664
4588000000.0 -0.009566579945385456 -0.011765699833631516
4592000000.0 -0.00979224219918251 0.011848277412354946
4596000000.0 0.013456180691719055 0.007618065923452377
4600000000.0 0.0046399058774113655 -0.014694261364638805
4604000000.0 -0.015285185538232327 -0.0017117540119215846
4608000000.0 0.0014186766929924488 0.015259296633303165
4612000000.0 0.014568141661584377 -0.004128859378397465
4616000000.0 -0.006738174241036177 -0.01310037262737751
4620000000.0 -0.011053702794015408 0.009039638563990593
4624000000.0 0.010897689498960972 0.009065963327884674
4628000000.0 0.00662695849314332 -0.01191003154963255
4632000000.0 -0.012268222868442535 -0.0045183878391981125
4636000000.0 -0.0021698661148548126 0.012649652548134327
4640000000.0 0.012636089697480202 0.0002587293856777251
4644000000.0 -0.0019840283785015345 -0.011884567327797413
4648000000.0 -0.01111767441034317 0.00368192745372653
4652000000.0 0.005173133220523596 0.010041521862149239
4656000000.0 0.008731022477149963 -0.006351443938910961
4660000000.0 -0.007411082275211811 -0.0077481577172875404
4664000000.0 -0.006498224567621946 0.008214127272367477
4668000000.0 0.009093517437577248 0.0051048630848526955
4672000000.0 0.0036281479988247156 -0.009635774418711662
4676000000.0 -0.010048389434814453 -0.0020998897962272167
4680000000.0 -0.0004291943332646042 0.009843186475336552
4684000000.0 0.009845816530287266 -0.0009674708708189428
4688000000.0 -0.002273452002555132 -0.009248959831893444
4692000000.0 -0.008977297693490982 0.0035457019694149494
4696000000.0 0.0048827435821294785 0.008599180728197098
4700000000.0 0.007675063330680132 -0.00600825110450387
4704000000.0 -0.0073978491127491 -0.006881223060190678
4708000000.0 -0.005721180234104395 0.00840855948626995
4712000000.0 0.009133432991802692 0.004395999014377594
4716000000.0 0.002988960826769471 -0.010031187906861305
4720000000.0 -0.010186697356402874 -0.0011850520968437195
4724000000.0 0.0003656268527265638 0.010613370686769485
4728000000.0 0.010395542718470097 -0.0018833765061572194
4732000000.0 -0.0037415011320263147 -0.010163848288357258
4736000000.0 -0.009567425586283207 0.005350586958229542
4740000000.0 0.007001339457929134 0.008551432751119137
4744000000.0 0.007324058096855879 -0.008384098298847675
4748000000.0 -0.009484984911978245 -0.0063307760283350945
4752000000.0 -0.0047581931576132774 0.01047811470925808
4756000000.0 0.011579908430576324 0.0029736636206507683
4760000000.0 0.0008825062541291118 -0.012193876318633556
4764000000.0 -0.012423444539308548 0.0014203919563442469
4768000000.0 0.0038872393779456615 0.012082666158676147
4772000000.0 0.011288546957075596 -0.006198707967996597
4776000000.0 -0.008387989364564419 -0.010166757740080357
4780000000.0 -0.008254620246589184 0.010260768234729767
4784000000.0 0.011946450918912888 0.006144472397863865
4788000000.0 0.003822650294750929 -0.012786708772182465
4792000000.0 -0.013098114170134068 -0.0010030865669250488
4796000000.0 0.0014531569322571158 0.012916071340441704
4800000000.0 0.012180431745946407 -0.003885133657604456
4804000000.0 -0.005971882492303848 -0.011057479307055473
4808000000.0 -0.009653180837631226 0.007930155843496323
4812000000.0 0.009282361716032028 0.008104049600660801
4816000000.0 0.006006849929690361 -0.010424468666315079
4820000000.0 -0.010957841761410236 -0.003911647014319897
4824000000.0 -0.0018013131339102983 0.011378149501979351
4828000000.0 0.011075599119067192 -0.00024238806508947164
4832000000.0 -0.0021560548339039087 -0.010650679469108582
4836000000.0 -0.0098379822447896 0.0037877997383475304
4840000000.0 0.005363035015761852 0.008932659402489662
4844000000.0 0.0076680416241288185 -0.006593190133571625
4848000000.0 -0.0074818371795117855 -0.006396231707185507
4852000000.0 -0.004912755452096462 0.008229291066527367
4856000000.0 0.008762470446527004 0.0036562965251505375
4860000000.0 0.0022712452337145805 -0.009023651480674744
4864000000.0 -0.009078525938093662 -0.0008126524626277387
4868000000.0 0.000602412095759064 0.009022494778037071
4872000000.0 0.008823437616229057 -0.0017416289774701
4876000000.0 -0.003250332549214363 -0.008300194516777992
4880000000.0 -0.007555182557553053 0.004335320554673672
4884000000.0 0.0054464805871248245 0.0068288142792880535
4888000000.0 0.005919273477047682 -0.00643345108255744
4892000000.0 -0.007113209459930658 -0.004853398073464632
4896000000.0 -0.003800348611548543 0.007943129166960716
4900000000.0 0.008525208570063114 0.0026026617269963026
4904000000.0 0.0011553309159353375 -0.00874405074864626
4908000000.0 -0.008816562592983246 0.0001636952511034906
4912000000.0 0.001582544413395226 0.00866843294352293
4916000000.0 0.008364502340555191 -0.0027012531645596027
4920000000.0 -0.0038952939212322235 -0.007954775355756283
4924000000.0 -0.007476801052689552 0.0052139731124043465
4928000000.0 0.006699906662106514 0.006645501591265202
4932000000.0 0.0054420712403953075 -0.007731783203780651
4936000000.0 -0.00853857584297657 -0.004124958999454975
4940000000.0 -0.0026701046153903008 0.009324487298727036
4944000000.0 0.009628212079405785 0.0010150799062103033
4948000000.0 -0.0006539365858770907 -0.009964420460164547
4952000000.0 -0.009829963557422161 0.002364660846069455
4956000000.0 0.004221819341182709 0.009444791823625565
4960000000.0 0.008747665211558342 -0.005797761492431164
4964000000.0 -0.007469246629625559 -0.007721467409282923
4968000000.0 -0.006251128856092691 0.008714537136256695
4972000000.0 0.009867096319794655 0.004571443423628807
4976000000.0 0.002649199916049838 -0.010829376056790352
4980000000.0 -0.011104388162493706 -0.00045880008838139474
4984000000.0 0.001712457975372672 0.01089935190975666
4988000000.0 0.010361064225435257 -0.003699028631672263
4992000000.0 -0.005481960251927376 -0.00920062605291605
4996000000.0 -0.008114253170788288 0.00703568197786808
5000000000.0 0.00826316885650158 0.006688209250569344
5004000000.0 0.004903900437057018 -0.009257248602807522
5008000000.0 -0.009994770400226116 -0.0030634645372629166
5012000000.0 -0.0010287852492183447 0.010177445597946644
5016000000.0 0.010047261603176594 -0.0007599894306622446
5020000000.0 -0.0024717729538679123 -0.009408154524862766
5024000000.0 -0.008461476303637028 0.003952031955122948
5028000000.0 0.0053289118222892284 0.007463926449418068
5032000000.0 0.006479051895439625 -0.006344291847199202
5036000000.0 -0.0070197004824876785 -0.005363095086067915
5040000000.0 -0.003918264526873827 0.007513366639614105
5044000000.0 0.008118919096887112 0.002467593876644969
5048000000.0 0.0013206793228164315 -0.00834156945347786
5052000000.0 -0.008185911923646927 0.00010820450552273542
5056000000.0 0.001263566897250712 0.008054357022047043
5060000000.0 0.007509353570640087 -0.002576678292825818
5064000000.0 -0.00351836159825325 -0.007028478197753429
5068000000.0 -0.0062317149713635445 0.004515219014137983
5072000000.0 0.005262964870780706 0.005648787599056959
5076000000.0 0.004788316320627928 -0.006001465022563934
5080000000.0 -0.006704818923026323 -0.00357342348434031
5084000000.0 -0.0025820399168878794 0.007274480536580086
5088000000.0 0.007714870385825634 0.0013881316408514977
5092000000.0 0.0004537810746114701 -0.007821626961231232
5096000000.0 -0.007821270264685154 0.0010896689491346478
5100000000.0 0.0023330864496529102 0.007397051434963942
5104000000.0 0.007117542438209057 -0.0033849363680928946
5108000000.0 -0.004735005088150501 -0.006333863362669945
5112000000.0 -0.005649985745549202 0.005631595849990845
5116000000.0 0.006507536396384239 0.004572585225105286
5120000000.0 0.003712037578225136 -0.007238565944135189
5124000000.0 -0.0076088570058345795 -0.0024013023357838392
5128000000.0 -0.0010613718768581748 0.008012600243091583
5132000000.0 0.00843078549951315 1.395251638314221e-05
5136000000.0 -0.0015449647326022387 -0.008211066015064716
5140000000.0 -0.008113294839859009 0.0029402326326817274
5144000000.0 0.004193498753011227 0.007548040710389614
5148000000.0 0.0065682451240718365 -0.005554172210395336
5152000000.0 -0.006660131271928549 -0.005606458056718111
5156000000.0 -0.0044624460861086845 0.007683150935918093
5160000000.0 0.008348545990884304 0.0030811757314950228
5164000000.0 0.0014509963802993298 -0.008959098719060421
5168000000.0 -0.009101008996367455 4.5234744902700186e-05
5172000000.0 0.0017894050106406212 0.009111903607845306
5176000000.0 0.00820155069231987 -0.003370169783011079
5180000000.0 -0.004897066857665777 -0.0075341020710766315
5184000000.0 -0.006405449006706476 0.0059158350341022015
5188000000.0 0.007001101039350033 0.0052131228148937225
5192000000.0 0.0036708491388708353 -0.0076937805861234665
5196000000.0 -0.00831364095211029 -0.0023558090906590223
5200000000.0 -0.0007177062216214836 0.008502892218530178
5204000000.0 0.008311940357089043 -0.0007015501032583416
5208000000.0 -0.002228593686595559 -0.007929899729788303
5212000000.0 -0.007154556456953287 0.003336026333272457
5216000000.0 0.004374395590275526 0.006360467057675123
5220000000.0 0.00561794126406312 -0.005272430833429098
5224000000.0 -0.006056449841707945 -0.004466658923774958
5228000000.0 -0.0033725702669471502 0.0065206619910895824
5232000000.0 0.00684814527630806 0.002199423499405384
5236000000.0 0.0011805034009739757 -0.006951509974896908
5240000000.0 -0.006998630240559578 -2.5183702746289782e-05
5244000000.0 0.0009249001741409302 0.00678063090890646
5248000000.0 0.006418104749172926 -0.0020382876973599195
5252000000.0 -0.003006899729371071 -0.005946851801127195
5256000000.0 -0.005483837798237801 0.003761858679354191
5260000000.0 0.004543997813016176 0.004725601989775896
5264000000.0 0.0039539821445941925 -0.005212499760091305
5268000000.0 -0.005805079825222492 -0.003124362789094448
5272000000.0 -0.002185751684010029 0.0061576939187943935
5276000000.0 0.006316165439784527 0.0012097378494217992
5280000000.0 0.00020193860109429806 -0.0064001260325312614
5284000000.0 -0.0062860785983502865 0.0006973553099669516
5288000000.0 0.0016746598994359374 0.006203656550496817
5292000000.0 0.005917729344218969 -0.0026724841445684433
5296000000.0 -0.003550528548657894 -0.005602679681032896
5300000000.0 -0.004992309957742691 0.004361310042440891
5304000000.0 0.005039859563112259 0.004233169369399548
5308000000.0 0.003596932627260685 -0.005776138044893742
5312000000.0 -0.006284687668085098 -0.0026788883842527866
5316000000.0 -0.0016208785818889737 0.006791641470044851
5320000000.0 0.007115264423191547 0.000559894135221839
5324000000.0 -0.000729831401258707 -0.007200163323432207
5328000000.0 -0.007016140501946211 0.0018658764893189073
5332000000.0 0.0029647916089743376 0.006703624036163092
5336000000.0 0.006203209049999714 -0.0040930998511612415
5340000000.0 -0.005392446648329496 -0.005554760340601206
5344000000.0 -0.004510646220296621 0.006162297911942005
5348000000.0 0.007118582259863615 0.003438684158027172
5352000000.0 0.0020541043486446142 -0.007669719867408276
5356000000.0 -0.008008541539311409 -0.0005032596527598798
5360000000.0 0.0009211397264152765 0.007968628779053688
5364000000.0 0.0076844897121191025 -0.0023270135279744864
5368000000.0 -0.0037988012190908194 -0.007185283582657576
5372000000.0 -0.00637789024040103 0.005038660019636154
5376000000.0 0.006313626654446125 0.0053847962990403175
5380000000.0 0.004082870669662952 -0.006959885358810425
5384000000.0 -0.007622909266501665 -0.0025543051306158304
5388000000.0 -0.0013150982558727264 0.0077743991278111935
5392000000.0 0.007707244250923395 -0.00015216063184197992
5396000000.0 -0.0015794470673426986 -0.007380656898021698
5400000000.0 -0.007007644046097994 0.00288837356492877
5404000000.0 0.003986355382949114 0.006274607963860035
5408000000.0 0.005424355622380972 -0.004925702698528767
5412000000.0 -0.005728008691221476 -0.004330363590270281
5416000000.0 -0.00319437263533473 0.006366693414747715
5420000000.0 0.0065683950670063496 0.0019979809876531363
5424000000.0 0.0008293605642393231 -0.00652910303324461
5428000000.0 -0.006517223548144102 0.0001969993463717401
5432000000.0 0.001215393771417439 0.00612263148650527
5436000000.0 0.005727995652705431 -0.002060504863038659
5440000000.0 -0.002967548556625843 -0.00526045635342598
5444000000.0 -0.0047297351993620396 0.0037820630241185427
5448000000.0 0.004398916382342577 0.004009458236396313
5452000000.0 0.00321801844984293 -0.004983881488442421
5456000000.0 -0.0053262109868228436 -0.002304984489455819
5460000000.0 -0.001557556795887649 0.005491756834089756
5464000000.0 0.005593922920525074 0.0006985170766711235
5468000000.0 -7.513422315241769e-05 -0.005560140125453472
5472000000.0 -0.005491646938025951 0.0009694482432678342
5476000000.0 0.0018025229219347239 0.005469472613185644
5480000000.0 0.00489758001640439 -0.0026435027830302715
5484000000.0 -0.0033974405378103256 -0.004684717860072851
5488000000.0 -0.004035378806293011 0.004138728138059378
5492000000.0 0.0046106986701488495 0.0033169258385896683
5496000000.0 0.002483437303453684 -0.0050733196549117565
5500000000.0 -0.005460274405777454 -0.0017561899730935693
5504000000.0 -0.0009575592703185976 0.005654588807374239
5508000000.0 0.005934854503720999 -5.653022162732668e-05
5512000000.0 -0.0009329160675406456 -0.005894610658288002
5516000000.0 -0.00566126499325037 0.0019080964848399162
5520000000.0 0.0028922217898070812 0.005429727025330067
5524000000.0 0.004829185549169779 -0.003708980744704604
5528000000.0 -0.004502665717154741 -0.0042229606769979
5532000000.0 -0.0034501575864851475 0.005109713412821293
5536000000.0 0.005919096991419792 0.0024234673473984003
5540000000.0 0.001485905610024929 -0.00629949988797307
5544000000.0 -0.006402892526239157 -0.00035418668994680047
5548000000.0 0.0008262104820460081 0.006275411695241928
5552000000.0 0.006230290047824383 -0.0018586252117529511
5556000000.0 -0.002928196219727397 -0.005811874754726887
5560000000.0 -0.005302530247718096 0.004074071999639273
5564000000.0 0.004887773189693689 0.004283524118363857
5568000000.0 0.0032398151233792305 -0.005702265538275242
5572000000.0 -0.00604312913492322 -0.002049864735454321
5576000000.0 -0.0009453932289034128 0.0062753865495324135
5580000000.0 0.006245261989533901 -3.280093733337708e-05
5584000000.0 -0.0011174008250236511 -0.006259329151362181
5588000000.0 -0.005823938641697168 0.002199158538132906
5592000000.0 0.003282347694039345 0.005244709085673094
5596000000.0 0.004287126008421183 -0.0041016992181539536
5600000000.0 -0.004709335509687662 -0.003498140024021268
5604000000.0 -0.002557846950367093 0.004870906937867403
5608000000.0 0.0051980395801365376 0.0018487885827198625
5612000000.0 0.001011581509374082 -0.005414396524429321
5616000000.0 -0.005614227615296841 -0.00010872271377593279
5620000000.0 0.0008565479656681418 0.005456180311739445
5624000000.0 0.005213177762925625 -0.001652564387768507
5628000000.0 -0.0024476784747093916 -0.004652154631912708
5632000000.0 -0.00423025619238615 0.0029982365667819977
5636000000.0 0.0035266901832073927 0.0036305044777691364
5640000000.0 0.003153550671413541 -0.004063041415065527
5644000000.0 -0.004571319557726383 -0.0024803797714412212
5648000000.0 -0.0017650958616286516 0.004816302563995123
5652000000.0 0.0049890740774571896 0.000859161198604852
5656000000.0 0.0002451858017593622 -0.005119618959724903
5660000000.0 -0.005088468082249165 0.0007208419847302139
5664000000.0 0.0013755474938079715 0.004854316357523203
5668000000.0 0.004524999763816595 -0.0020196610130369663
5672000000.0 -0.0028422612231224775 -0.004170525353401899
5676000000.0 -0.0037545314989984035 0.0035779569298028946
5680000000.0 0.004144842736423016 0.003186010755598545
5684000000.0 0.0024044117890298367 -0.004589201882481575
5688000000.0 -0.004868688061833382 -0.001736367354169488
5692000000.0 -0.0009587349486537278 0.005149210803210735
5696000000.0 0.005401303991675377 0.00019138598872814327
5700000000.0 -0.000805254268925637 -0.005457745399326086
5704000000.0 -0.005297512747347355 0.0017956001684069633
5708000000.0 0.002672499045729637 0.00487465038895607
5712000000.0 0.0043512810952961445 -0.0034888312220573425
5716000000.0 -0.003951746970415115 -0.0037737328093498945
5720000000.0 -0.0031809404026716948 0.0047850226983428
5724000000.0 0.0055947988294065 0.002500779228284955
5728000000.0 0.0014278561575338244 -0.00606940733268857
5732000000.0 -0.006100591737776995 -7.167235162341967e-05
5736000000.0 0.001058473833836615 0.0060834335163235664
5740000000.0 0.005609657149761915 -0.0021613556891679764
5744000000.0 -0.0030786204151809216 -0.00507251126691699
5748000000.0 -0.004598446190357208 0.0038543061818927526
5752000000.0 0.004677225835621357 0.0038921295199543238
5756000000.0 0.0029625468887388706 -0.0053839730098843575
5760000000.0 -0.005672228056937456 -0.001796529977582395
5764000000.0 -0.000749130267649889 0.005823609419167042
5768000000.0 0.005810122471302748 -0.00026213665842078626
5772000000.0 -0.0011389643186703324 -0.005409687291830778
5776000000.0 -0.005186207126826048 0.0018773755291476846
5780000000.0 0.0028670132160186768 0.004719220567494631
5784000000.0 0.004250029567629099 -0.0034685018472373486
5788000000.0 -0.004133247304707766 -0.003329971805214882
5792000000.0 -0.0027539776638150215 0.004652748350054026
5796000000.0 0.005021081771701574 0.0019267500611022115
5800000000.0 0.0009999009780585766 -0.005142163019627333
5804000000.0 -0.005098136607557535 -0.00016447062080260366
5808000000.0 0.0006111667025834322 0.005179904866963625
5812000000.0 0.004977489821612835 -0.001516130636446178
5816000000.0 -0.0020796640310436487 -0.004500625655055046
5820000000.0 -0.00425275694578886 0.002821285743266344
5824000000.0 0.00353237078525126 0.0036741860676556826
5828000000.0 0.0031555851455777884 -0.003986375872045755
5832000000.0 -0.004431059118360281 -0.0024644548539072275
5836000000.0 -0.001717696781270206 0.004850073251873255
5840000000.0 0.005074647720903158 0.0008167451596818864
5844000000.0 5.7712029956746846e-05 -0.005114980507642031
5848000000.0 -0.005006086081266403 0.0007288851193152368
5852000000.0 0.0016254737274721265 0.00477023096755147
5856000000.0 0.0046416763216257095 -0.002253684913739562
5860000000.0 -0.0031176640186458826 -0.004449640866369009
5864000000.0 -0.003735798643901944 0.003722919151186943
5868000000.0 0.004293334204703569 0.0030768169090151787
5872000000.0 0.0023367784451693296 -0.004851524718105793
5876000000.0 -0.005211755633354187 -0.001622227020561695
5880000000.0 -0.0007584699196740985 0.005585595034062862
5884000000.0 0.005533051677048206 -0.00022506664390675724
5888000000.0 -0.0011338908225297928 -0.005542594939470291
5892000000.0 -0.005466862116008997 0.0021850774064660072
5896000000.0 0.003094641724601388 0.005108871962875128
5900000000.0 0.004700048360973597 -0.003885036800056696
5904000000.0 -0.004586729686707258 -0.003594734240323305
5908000000.0 -0.0028324718587100506 0.005368893500417471
5912000000.0 0.0058336458168923855 0.0018302755197510123
5916000000.0 0.0006630344432778656 -0.006165245082229376
5920000000.0 -0.006223812699317932 0.0004637987003661692
5924000000.0 0.0015365699073299766 0.006005832925438881
5928000000.0 0.0055632637813687325 -0.002616649027913809
5932000000.0 -0.0034306428860872984 -0.00509481318295002
5936000000.0 -0.004326959140598774 0.004393349401652813
5940000000.0 0.005211972631514072 0.0034073623828589916
5944000000.0 0.002324422588571906 -0.0055870311334729195
5948000000.0 -0.00585789093747735 -0.0012677958002313972
5952000000.0 -0.0003843286249320954 0.005829571280628443
5956000000.0 0.005820618476718664 -0.0008250094251707196
5960000000.0 -0.0017075828509405255 -0.005444975104182959
5964000000.0 -0.004986126907169819 0.0025310234632343054
5968000000.0 0.0034046450164169073 0.004547655116766691
5972000000.0 0.003769309027120471 -0.004082772880792618
5976000000.0 -0.004510832950472832 -0.0027792423497885466
5980000000.0 -0.0021784408017992973 0.004722269251942635
5984000000.0 0.004922766704112291 0.0012532175751402974
5988000000.0 0.0005063238786533475 -0.004945587832480669
5992000000.0 -0.00493633234873414 0.00022564336541108787
5996000000.0 0.001050816965289414 0.004658966325223446
6000000000.0 0.004550112411379814 -0.0017998538678511977
6004000000.0 -0.0024657128378748894 -0.004202212672680616
6008000000.0 -0.0036467292811721563 0.0030174748972058296
6012000000.0 0.003470261115580797 0.0030582170002162457
6016000000.0 0.0025594390463083982 -0.0038146208971738815
6020000000.0 -0.004073149524629116 -0.002001779852434993
6024000000.0 -0.0012990947579964995 0.004392118193209171
6028000000.0 0.004537811037153006 0.0007055337191559374
6032000000.0 -8.959168917499483e-05 -0.004680011421442032
6036000000.0 -0.0045094615779817104 0.0007515760371461511
6040000000.0 0.0014849790604785085 0.0044761598110198975
6044000000.0 0.004367847926914692 -0.00217580609023571
6048000000.0 -0.0028080055490136147 -0.003983026836067438
6052000000.0 -0.0035884054377675056 0.0035069934092462063
6056000000.0 0.004071343224495649 0.002938944846391678
6060000000.0 0.0023425715044140816 -0.004567059688270092
6064000000.0 -0.004890854936093092 -0.001543911057524383
6068000000.0 -0.0006106478394940495 0.005095681641250849
6072000000.0 0.005255256779491901 1.5679150237701833e-05
6076000000.0 -0.0010339125292375684 -0.0053361086174845695
6080000000.0 -0.005116633605211973 0.0019861324690282345
6084000000.0 0.0027699898928403854 0.004725310485810041
6088000000.0 0.00428767129778862 -0.0037957157474011183
6092000000.0 -0.004659348167479038 -0.003511860966682434
6096000000.0 -0.0027378688100725412 0.005174057092517614
6100000000.0 0.005644774064421654 0.0017221379093825817
6104000000.0 0.0007179164094850421 -0.00596179673448205
6108000000.0 -0.005969753954559565 0.0003596209571696818
6112000000.0 0.0015469711506739259 0.0057729813270270824
6116000000.0 0.005465127062052488 -0.00260942243039608
6120000000.0 -0.0036225130315870047 -0.004782596603035927
6124000000.0 -0.004157203249633312 0.004443207290023565
6128000000.0 0.005011387635022402 0.003248178167268634
6132000000.0 0.0021586634684354067 -0.005368363112211227
6136000000.0 -0.005630253814160824 -0.0011346436804160476
6140000000.0 -0.00011828314018202946 0.005543201230466366
6144000000.0 0.0054506827145814896 -0.000881182320881635
6148000000.0 -0.0017947431188076735 -0.005239150952547789
6152000000.0 -0.004963178653270006 0.002492524217814207
6156000000.0 0.0033130820374935865 0.004237375222146511
6160000000.0 0.0035277381539344788 -0.0038518663495779037
6164000000.0 -0.004303742200136185 -0.0027319358196109533
6168000000.0 -0.002038041828200221 0.004525645636022091
6172000000.0 0.004808098077774048 0.0012160289334133267
6176000000.0 0.0006509946542792022 -0.004920863080769777
6180000000.0 -0.0048780241049826145 0.0002083910076180473
6184000000.0 0.0009457033011130989 0.004685795400291681
6188000000.0 0.004531920421868563 -0.0016139278886839747
6192000000.0 -0.002395885530859232 -0.004176127724349499
6196000000.0 -0.0037044882774353027 0.002975488780066371
6200000000.0 0.003467416390776634 0.003205773886293173
6204000000.0 0.0025267493911087513 -0.0039320215582847595
6208000000.0 -0.004418093245476484 -0.00198556762188673
6212000000.0 -0.0012297852663323283 0.004555247724056244
6216000000.0 0.0047456854954361916 0.00047146709403023124
6220000000.0 -0.00027857429813593626 -0.00477091409265995
6224000000.0 -0.004808854311704636 0.0009064273908734322
6228000000.0 0.001887387246824801 0.004538766108453274
6232000000.0 0.004164440091699362 -0.002557175699621439
6236000000.0 -0.003194954013451934 -0.0036999492440372705
6240000000.0 -0.0031830635853111744 0.0038409072440117598
6244000000.0 0.004307578317821026 0.002601761370897293
6248000000.0 0.0018608979880809784 -0.0047557237558066845
6252000000.0 -0.0049888575449585915 -0.0010693781077861786
6256000000.0 -0.00024413227220065892 0.005192975979298353
6260000000.0 0.005172897595912218 -0.0008084462024271488
6264000000.0 -0.0017070474568754435 -0.005113706458359957
6268000000.0 -0.0046796780079603195 0.0025719276163727045
6272000000.0 0.003410019213333726 0.00416356697678566
6276000000.0 0.0034598899073898792 -0.004206791520118713
6280000000.0 -0.004792036488652229 -0.002686461666598916
6284000000.0 -0.0019223514245823026 0.0051317401230335236
6288000000.0 0.00546973617747426 0.0009335760842077434
6292000000.0 -7.525498222094029e-05 -0.005536300130188465
6296000000.0 -0.005355998873710632 0.0010686961468309164
6300000000.0 0.002106391591951251 0.005113722290843725
6304000000.0 0.004498072434216738 -0.0028249132446944714
6308000000.0 -0.0037055194843560457 -0.0038294519763439894
6312000000.0 -0.0031025533098727465 0.004268086981028318
6316000000.0 0.004680010490119457 0.0022469148971140385
6320000000.0 0.0014372110599651933 -0.0048514436930418015
6324000000.0 -0.0050074635073542595 -0.0004608671588357538
6328000000.0 0.0003019366995431483 0.004962760489434004
6332000000.0 0.004742255434393883 -0.0010748609201982617
6336000000.0 -0.0018579850438982248 -0.004423226695507765
6340000000.0 -0.003976746927946806 0.002509636338800192
6344000000.0 0.003139519365504384 0.0033902577124536037
6348000000.0 0.0027384876739233732 -0.00360056571662426
6352000000.0 -0.003891183063387871 -0.002172282198444009
6356000000.0 -0.0015082299942150712 0.0041219196282327175
6360000000.0 0.004406670108437538 0.0007985092815943062
6364000000.0 0.00015839451225474477 -0.004364272579550743
6368000000.0 -0.004303809255361557 0.0006428557680919766
6372000000.0 0.001193449948914349 0.004117622040212154
6376000000.0 0.003852349240332842 -0.001930848229676485
6380000000.0 -0.002417017240077257 -0.0034290433395653963
6384000000.0 -0.003084093565121293 0.0028209914453327656
6388000000.0 0.00323631358332932 0.0026274723932147026
6392000000.0 0.0020759711042046547 -0.003748107934370637
6396000000.0 -0.004115949384868145 -0.0015521903987973928
6400000000.0 -0.0008425649139098823 0.004222982097417116
6404000000.0 0.004408147651702166 0.00010225220466963947
6408000000.0 -0.000589183415286243 -0.004362323321402073
6412000000.0 -0.004268221091479063 0.0013834817800670862
6416000000.0 0.0020670623052865267 0.0039794775657355785
6420000000.0 0.003664537100121379 -0.0028498019091784954
6424000000.0 -0.0034344401210546494 -0.0031221783719956875
6428000000.0 -0.0024974048137664795 0.003974988590925932
6432000000.0 0.004374369513243437 0.0018038429552689195
6436000000.0 0.001044218661263585 -0.004667333792895079
6440000000.0 -0.004899412859231234 -0.00018191114941146225
6444000000.0 0.0007796022109687328 0.004906380083411932
6448000000.0 0.004719097167253494 -0.0017376800533384085
6452000000.0 -0.0026051406748592854 -0.004194344859570265
6456000000.0 -0.0035708246286958456 0.0032943319529294968
6460000000.0 0.003892025677487254 0.00293894880451262
6464000000.0 0.0021880236454308033 -0.004275795537978411
6468000000.0 -0.004538016859441996 -0.0013835718855261803
6472000000.0 -0.0005549198249354959 0.004656336735934019
6476000000.0 0.004688628017902374 -0.0002598630962893367
6480000000.0 -0.0011780348140746355 -0.004466008394956589
6484000000.0 -0.004145984537899494 0.001765579916536808
6488000000.0 0.0024498309940099716 0.003640319686383009
6492000000.0 0.003129771910607815 -0.0030258088372647762
6496000000.0 -0.00346085662022233 -0.002478701528161764
6500000000.0 -0.001875337678939104 0.0038199007976800203
6504000000.0 0.004011159297078848 0.0011857000645250082
6508000000.0 0.0004716087132692337 -0.004117166623473167
6512000000.0 -0.004070471506565809 0.00018063477182295173
6516000000.0 0.0008688074885867536 0.0039051088970154524
6520000000.0 0.0036870241165161133 -0.0014356266474351287
6524000000.0 -0.002045870292931795 -0.003378839697688818
6528000000.0 -0.0029245801270008087 0.0025578243657946587
6532000000.0 0.003013193840160966 0.0022958756890147924
6536000000.0 0.0018612288404256105 -0.0033503537997603416
6540000000.0 -0.0034270333126187325 -0.0012519852025434375
6544000000.0 -0.0007854651194065809 0.003495036391541362
6548000000.0 0.00357474060729146 0.00023017961939331144
6552000000.0 -0.00023267307551577687 -0.003570782719179988
6556000000.0 -0.0034900184255093336 0.0008926704758778214
6560000000.0 0.0014749576803296804 0.003366099903360009
6564000000.0 0.0029629110358655453 -0.0020305654034018517
6568000000.0 -0.002514410996809602 -0.0026245899498462677
6572000000.0 -0.0023384876549243927 0.0026844863314181566
6576000000.0 0.0030898842960596085 0.0019758064299821854
6580000000.0 0.0013369581429287791 -0.0034492420963943005
6584000000.0 -0.003589246654883027 -0.0007858463795855641
6588000000.0 -4.2361138184787706e-05 0.0037587035913020372
6592000000.0 0.0037236036732792854 -0.0004482130752876401
6596000000.0 -0.0011359791969880462 -0.003709091804921627
6600000000.0 -0.0034306941088289022 0.0017181190196424723
6604000000.0 0.0022096699103713036 0.0031593579333275557
6608000000.0 0.002793264575302601 -0.002819892717525363
6612000000.0 -0.0032284187618643045 -0.002291816519573331
6616000000.0 -0.0016451984411105514 0.0038259306456893682
6620000000.0 0.0038658827543258667 0.0010091130388900638
6624000000.0 0.00025173788890242577 -0.004044423811137676
6628000000.0 -0.004049345385283232 0.0004284053866285831
6632000000.0 0.0012462568702176213 0.003921763505786657
6636000000.0 0.0036318206693977118 -0.001906701596453786
6640000000.0 -0.0025516280438750982 -0.0032684411853551865
6644000000.0 -0.0027271388098597527 0.0029832245782017708
6648000000.0 0.0035496933851391077 0.0020061852410435677
6652000000.0 0.001486998749896884 -0.0037750827614217997
6656000000.0 -0.003930610604584217 -0.000645818596240133
6660000000.0 -5.614745168713853e-05 0.003919894341379404
6664000000.0 0.0038253653328865767 -0.0006745871505700052
6668000000.0 -0.00142930808942765 -0.0036479420959949493
6672000000.0 -0.0032467518467456102 0.0020182605367153883
6676000000.0 0.0024266778491437435 0.0028600511141121387
6680000000.0 0.0023172658402472734 -0.00280448654666543
6684000000.0 -0.0031030059326440096 -0.0018854046938940883
6688000000.0 -0.001249249093234539 0.0033211084082722664
6692000000.0 0.003346581943333149 0.0006897231796756387
6696000000.0 0.00020658530411310494 -0.0034520511981099844
6700000000.0 -0.0033298488706350327 0.0004023538494948298
6704000000.0 0.000918315548915416 0.003192803356796503
6708000000.0 0.003009563311934471 -0.001444076420739293
6712000000.0 -0.001841926365159452 -0.002785401651635766
6716000000.0 -0.0024005125742405653 0.002197408815845847
6720000000.0 0.002531464211642742 0.0020118397660553455
6724000000.0 0.0016660444671288133 -0.0028558403719216585
6728000000.0 -0.003035584231838584 -0.0011251611867919564
6732000000.0 -0.0007375692948698997 0.0031501261983066797
6736000000.0 0.0032221567817032337 0.0001941396330948919
6740000000.0 -0.00032442252268083394 -0.0032764107454568148
6744000000.0 -0.0032208359334617853 0.0008711034897714853
6748000000.0 0.0013907091924920678 0.003064095275476575
6752000000.0 0.0027481094002723694 -0.0018966393545269966
6756000000.0 -0.002244135830551386 -0.002442124765366316
6760000000.0 -0.002038894686847925 0.002647405257448554
6764000000.0 0.002986363135278225 0.001636321539990604
6768000000.0 0.001146559719927609 -0.003310475265607238
6772000000.0 -0.0035686008632183075 -0.0005489395116455853
6776000000.0 6.079177910578437e-05 0.003618223126977682
6780000000.0 0.0035176400560885668 -0.0007053344161249697
6784000000.0 -0.0014422062085941434 -0.0034190404694527388
6788000000.0 -0.0032181935384869576 0.0019338219426572323
6792000000.0 0.0025313205551356077 0.002781605115160346
6796000000.0 0.0023136732634156942 -0.002907046116888523
6800000000.0 -0.003386417869478464 -0.0016485467785969377
6804000000.0 -0.001116891740821302 0.003659286070615053
6808000000.0 0.003823123872280121 0.00039419266977347434
6812000000.0 -0.00030722314841113985 -0.0038200695998966694
6816000000.0 -0.003629659302532673 0.0010110848816111684
6820000000.0 0.001611035200767219 0.0034359267447143793
6824000000.0 0.002989123109728098 -0.002361177233979106
6828000000.0 -0.0027270419523119926 -0.002564353169873357
6832000000.0 -0.0019198072841390967 0.0031259008683264256
6836000000.0 0.003436828264966607 0.001292529283091426
6840000000.0 0.0004984235274605453 -0.0034882461186498404
6844000000.0 -0.0033978440333157778 -6.250125443330035e-05
6848000000.0 0.0005767981638200581 0.0033171968534588814
6852000000.0 0.0030504900496453047 -0.0011444564443081617
6856000000.0 -0.0015535027487203479 -0.002815778134390712
6860000000.0 -0.002416713396087289 0.0020158463157713413
6864000000.0 0.0023408636916428804 0.0019890558905899525
6868000000.0 0.0016213112976402044 -0.0024669556878507137
6872000000.0 -0.0026475326158106327 -0.001098301145248115
6876000000.0 -0.0007862542988732457 0.0027475659735500813
6880000000.0 0.0028291130438447 0.0003231300797779113
6884000000.0 -7.540392107330263e-05 -0.002794046886265278
6888000000.0 -0.002706503961235285 0.00048291755956597626
6892000000.0 0.0009029180509969592 0.002548075281083584
6896000000.0 0.002453180029988289 -0.0011940361000597477
6900000000.0 -0.001564869424328208 -0.0021994912531226873
6904000000.0 -0.0018922651652246714 0.0018426021561026573
6908000000.0 0.002070776652544737 0.001565158017911017
6912000000.0 0.0012800912372767925 -0.0022315080277621746
6916000000.0 -0.0025452219415456057 -0.0008702866616658866
6920000000.0 -0.00047250601346604526 0.002720822114497423
6924000000.0 0.0027601770125329494 6.549013846779417e-07
6928000000.0 -0.00035832953290082514 -0.002645010594278574
6932000000.0 -0.002537981141358614 0.0007940101204439998
6936000000.0 0.0011153881205245852 0.002451372565701604
6940000000.0 0.0022705979645252228 -0.0015714693581685424
6944000000.0 -0.0019545569084584713 -0.0021751385647803545
6948000000.0 -0.0017889020964503288 0.002311673713847995
6952000000.0 0.0026604854501783848 0.0014014968182891607
6956000000.0 0.0009363715653307736 -0.0027798316441476345
6960000000.0 -0.0030130587983876467 -0.000485018827021122
6964000000.0 1.0684359040169511e-05 0.0031153587624430656
6968000000.0 0.003204602748155594 -0.0004971930175088346
6972000000.0 -0.001146727241575718 -0.00304550863802433
6976000000.0 -0.0029104247223585844 0.001774867414496839
6980000000.0 0.002298339270055294 0.0024311309680342674
6984000000.0 0.0019513329025357962 -0.002651090733706951
6988000000.0 -0.003007084596902132 -0.0014417825732380152
6992000000.0 -0.000869756331667304 0.0033045720774680376
6996000000.0 0.00336079322732985 0.0003190937277395278
7000000000.0 -0.0003221180522814393 -0.0033811137545853853
7004000000.0 -0.0032355354633182287 0.0009908063802868128
7008000000.0 0.001751401461660862 0.0030866186134517193
7012000000.0 0.002616166602820158 -0.0022015240974724293
7016000000.0 -0.0026318307500332594 -0.002056301571428776
7020000000.0 -0.0015852331416681409 0.002868515206500888
7024000000.0 0.0030961500015109777 0.0009361894917674363
7028000000.0 0.0004378917219582945 -0.003223166801035404
7032000000.0 -0.003181697800755501 0.00023699310258962214
7036000000.0 0.0006727141444571316 0.0029956065118312836
7040000000.0 0.0026709826197475195 -0.0013536710757762194
7044000000.0 -0.0015215810853987932 -0.002388535300269723
7048000000.0 -0.0020540072582662106 0.0018728964496403933
7052000000.0 0.0021472887601703405 0.0016851074760779738
7056000000.0 0.001303369179368019 -0.002375059062615037
7060000000.0 -0.0025536627508699894 -0.0008246859069913626
7064000000.0 -0.0004524064133875072 0.002549554454162717
7068000000.0 0.0025408747605979443 -5.9137571952305734e-05
7072000000.0 -0.0003441016306169331 -0.0024716886691749096
7076000000.0 -0.0024267532862722874 0.000853674195241183
7080000000.0 0.0012155261356383562 0.002263141330331564
7084000000.0 0.0019468952668830752 -0.0013850076356902719
7088000000.0 -0.001730255433358252 -0.0016798858996480703
7092000000.0 -0.0014250680105760694 0.0018416339298710227
7096000000.0 0.0020461054518818855 0.001143546076491475
7100000000.0 0.000782723305746913 -0.002136124763637781
7104000000.0 -0.002227113349363208 -0.0005370964063331485
7108000000.0 -0.00019295225501991808 0.0023877653293311596
7112000000.0 0.00240758596919477 -0.00017114066577050835
7116000000.0 -0.0005221929168328643 -0.002293336670845747
7120000000.0 -0.002127333078533411 0.0009058442083187401
7124000000.0 0.0011950578773394227 0.0020313486456871033
7128000000.0 0.001872597960755229 -0.0015034112147986889
7132000000.0 -0.0018366697477176785 -0.001634943182580173
7136000000.0 -0.0014174934476613998 0.0021295032929629087
7140000000.0 0.0024698302149772644 0.0009144740179181099
7144000000.0 0.0005049247993156314 -0.002659960649907589
7148000000.0 -0.0026703933253884315 -7.914743036963046e-05
7152000000.0 0.00039394033956341445 0.002641037805005908
7156000000.0 0.002519026165828109 -0.0008571430807933211
7160000000.0 -0.0012758832890540361 -0.0024954623077064753
7164000000.0 -0.0023123687133193016 0.0017195087857544422
7168000000.0 0.002149417996406555 0.002033643424510956
7172000000.0 0.0016127332346513867 -0.0026991842314600945
7176000000.0 -0.002911096205934882 -0.0010428782552480698
7180000000.0 -0.0004175089707132429 0.0031983566004782915
7184000000.0 0.0031415517441928387 -0.00016642938135191798
7188000000.0 -0.0008733104332350194 -0.003095939289778471
7192000000.0 -0.002756838919594884 0.0014364420203492045
7196000000.0 0.0019013392738997936 0.0023590270429849625
7200000000.0 0.001969723030924797 -0.0022835321724414825
7204000000.0 -0.002536837477236986 -0.0014925498981028795
7208000000.0 -0.0011441479437053204 0.002879363251850009
7212000000.0 0.0029986535664647818 0.0005754830199293792
7216000000.0 -0.00011041128891520202 -0.0029872111044824123
7220000000.0 -0.002838085638359189 0.0007793527329340577
7224000000.0 0.0012270446168258786 0.0025541032664477825
7228000000.0 0.0021314932964742184 -0.001606701873242855
7232000000.0 -0.0019384474726393819 -0.001870519365184009
7236000000.0 -0.0014639246510341763 0.0021732975728809834
7240000000.0 0.0022960698697715998 0.001145769958384335
7244000000.0 0.0006683436222374439 -0.002517757238820195
7248000000.0 -0.0025697906967252493 -0.00027115916600450873
7252000000.0 0.0002476820081938058 0.0023642289452254772
7256000000.0 0.0022069155238568783 -0.0005477787344716489
7260000000.0 -0.0009160328190773726 -0.00205282773822546
7264000000.0 -0.0019232103368267417 0.001121078385040164
7268000000.0 0.0013456270098686218 0.0017342965584248304
7272000000.0 0.0014589587226510048 -0.001589283812791109
7276000000.0 -0.0017319684848189354 -0.0011052378686144948
7280000000.0 -0.0008244130876846611 0.001952715334482491
7284000000.0 0.002013948978856206 0.0005277703166939318
7288000000.0 0.0002416575443930924 -0.0020520109683275223
7292000000.0 -0.0020432292949408293 6.963936903048307e-05
7296000000.0 0.0004069268179591745 0.002006364520639181
7300000000.0 0.0019665476866066456 -0.0008508837199769914
7304000000.0 -0.0011257586302235723 -0.0018339338712394238
7308000000.0 -0.0015365444123744965 0.0014192293165251613
7312000000.0 0.001560078002512455 0.0014363789232447743
7316000000.0 0.0012503517791628838 -0.0017823029775172472
7320000000.0 -0.002046794630587101 -0.0007894255104474723
7324000000.0 -0.00046956518781371415 0.002342735882848501
7328000000.0 0.002342409919947386 5.6677698012208566e-05
7332000000.0 -0.0004110780719202012 -0.0023489329032599926
7336000000.0 -0.0021898606792092323 0.0008235658169724047
7340000000.0 0.001105017145164311 0.0020942988339811563
7344000000.0 0.0020587893668562174 -0.001432909513823688
7348000000.0 -0.0018939361907541752 -0.0018208858091384172
7352000000.0 -0.001527376240119338 0.002310249488800764
7356000000.0 0.0025952309370040894 0.0010781775927171111
7360000000.0 0.0004382503975648433 -0.002845629584044218
7364000000.0 -0.0028148056007921696 6.19145721429959e-05
7368000000.0 0.0006673645693808794 0.0028036588337272406
7372000000.0 0.0026531133335083723 -0.0011946792947128415
7376000000.0 -0.0017847223207354546 -0.002381526166573167
7380000000.0 -0.001996576553210616 0.0022383059840649366
7384000000.0 0.002818633336573839 0.0014055261854082346
7388000000.0 0.0007077254704199731 -0.002875988371670246
7392000000.0 -0.0028392765671014786 0.00010107602429343387
7396000000.0 0.0005821135709993541 0.00263389409519732
7400000000.0 0.0023342883214354515 -0.0011348892003297806
7404000000.0 -0.0015054309042170644 -0.0020372183062136173
7408000000.0 -0.0015296536730602384 0.0018545611528679729
7412000000.0 0.0018965578638017178 0.0010986708803102374
7416000000.0 0.0007148473523557186 -0.002023282926529646
7420000000.0 -0.0019600018858909607 -0.0003020323347300291
7424000000.0 1.8393684513284825e-05 0.0017757633468136191
7428000000.0 0.0017387396655976772 -0.00031995074823498726
7432000000.0 -0.0005340103525668383 -0.001581421121954918
7436000000.0 -0.0013762186281383038 0.0008115721284411848
7440000000.0 0.0009905213955789804 0.0011586033506318927
7444000000.0 0.000980969751253724 -0.0010252002393826842
7448000000.0 -0.0010831026593223214 -0.0007779468433000147
7452000000.0 -0.0006734291091561317 0.0011614669347181916
7456000000.0 0.0011943730060011148 0.0003849745262414217
7460000000.0 0.00022498240286950022 -0.0012894858373329043
7464000000.0 -0.0011318438919261098 -7.112653111107647e-05
7468000000.0 8.999434794532135e-05 0.0012442243751138449
7472000000.0 0.0011271031107753515 -0.0002836459025274962
7476000000.0 -0.0003093979903496802 -0.0010257415706291795
7480000000.0 -0.001001938944682479 0.0005097713437862694
7484000000.0 0.0006780951516702771 0.0009451522491872311
7488000000.0 0.0008646850474178791 -0.0007558357319794595
7492000000.0 -0.0008928832830861211 -0.0008247513324022293
7496000000.0 -0.0006756915245205164 0.0011028554290533066
7500000000.0 0.001119595137424767 0.0004626141453627497
7504000000.0 0.0003200389037374407 -0.0010975648183375597
7508000000.0 -0.0013287955662235618 -0.00014580278366338462
7512000000.0 4.730659202323295e-05 0.001268169959075749
7516000000.0 0.00135769322514534 -0.00027778101502917707
7520000000.0 -0.0005433484329842031 -0.001306249643675983
7524000000.0 -0.0013971943408250809 0.0007102753152139485
7528000000.0 0.0010099855717271566 0.001270377542823553
7532000000.0 0.0012077427236363292 -0.0013614827767014503
7536000000.0 -0.0016967874253168702 -0.0009411274804733694
7540000000.0 -0.0005714921862818301 0.002022118540480733
7544000000.0 0.0020110146142542362 -9.679413778940216e-05
7548000000.0 -0.0006560133770108223 -0.0019823284819722176
7552000000.0 -0.0018312608590349555 0.0012098663719370961
7556000000.0 0.001631533494219184 0.001357059576548636
7560000000.0 0.0008153344388119876 -0.0018557814182713628
7564000000.0 -0.001776236924342811 -0.0002729250700213015
7568000000.0 0.00020623397722374648 0.0017045793356373906
7572000000.0 0.0013749712379649282 -0.0005270953988656402
7576000000.0 -0.0007058302289806306 -0.0011672767577692866
7580000000.0 -0.0008987323963083327 0.0008609227952547371
7584000000.0 0.000831841432955116 0.0006203786469995975
7588000000.0 0.000491999089717865 -0.0007675177184864879
7592000000.0 -0.0008310845005325973 -0.0002521546557545662
7596000000.0 -0.00021550811652559787 0.0008051672484725714
7600000000.0 0.0008107785833999515 -1.8479533537174575e-05
7604000000.0 -7.517427002312616e-05 -0.0007072791922837496
7608000000.0 -0.0006103805499151349 0.00012172751303296536
7612000000.0 0.000267285417066887 0.0006362514686770737
7616000000.0 0.0005377850029617548 -0.00014306549564935267
7620000000.0 -0.000368673587217927 -0.00044759598677046597
7624000000.0 -0.0003837086260318756 0.0003254613548051566
7628000000.0 0.0003115381405223161 0.00028598273638635874
7632000000.0 0.00030320027144625783 -0.0003826614120043814
7636000000.0 -0.00037472962867468596 -0.00024110414960887283
7640000000.0 -0.00022938064648769796 0.0004396290169097483
7644000000.0 0.00035579962423071265 0.00017903077241498977
7648000000.0 1.7123904399340972e-05 -0.00045894659706391394
7652000000.0 -0.00043417460983619094 -0.00011368999548722059
7656000000.0 8.03630337031791e-06 0.00042061536805704236
7660000000.0 0.00036861549597233534 -7.382250623777509e-05
7664000000.0 -0.00014769336848985404 -0.00044711411464959383
7668000000.0 -0.00041936157504096627 0.00014108468894846737
7672000000.0 0.00019135621550958604 0.00038633920485153794
7676000000.0 0.0004210140323266387 -0.0002895515935961157
7680000000.0 -0.00030308039276860654 -0.00032918460783548653
7684000000.0 -0.000269795476924628 0.0003861078876070678
7688000000.0 0.0003890388470608741 0.00029940830427221954
7692000000.0 0.00017906563880387694 -0.000456718698842451
7696000000.0 -0.0005383738898672163 -0.00013331917580217123
7700000000.0 -5.570051143877208e-05 0.0006163570214994252
7704000000.0 0.0006534061976708472 -1.9443847122602165e-05
7708000000.0 -0.0002372290618950501 -0.0005764920497313142
7712000000.0 -0.0004712541413027793 0.00038647392648272216
7716000000.0 0.0005092297215014696 0.0003777662059292197
7720000000.0 0.00024811667390167713 -0.0006148454849608243
7724000000.0 -0.000567522831261158 -0.00010251119965687394
7728000000.0 1.977606189029757e-05 0.0004797751607839018
7732000000.0 0.00042847913573496044 -9.621543722460046e-05
7736000000.0 -0.00019276034436188638 -0.000331660034134984
7740000000.0 -0.00034676596987992525 0.00020875140035059303
7744000000.0 0.00027425590087659657 0.0002615024277474731
7748000000.0 0.00020256654534023255 -0.0002538491098675877
7752000000.0 -0.00016403227346017957 -0.00023564790899399668
7756000000.0 -0.00011251383693888783 0.00021741441742051393
7760000000.0 0.00023938486992847174 5.8736906794365495e-05
7764000000.0 0.00013490124547388405 -0.000270232034381479
7768000000.0 -0.0002285908121848479 -0.00011237711441935971
7772000000.0 2.659202891663881e-06 0.00030809917370788753
7776000000.0 0.00021739842486567795 1.2656159924517851e-05
7780000000.0 -5.968729965388775e-05 -0.00017686933279037476
7784000000.0 -0.00022015579452272505 7.864050712669268e-05
7788000000.0 -1.3342377314984333e-05 0.0001995936327148229
7792000000.0 0.00015582420746795833 -8.615790284238756e-05
7796000000.0 -0.00011515252845128998 -0.0001708618801785633
7800000000.0 -0.0002606985217425972 2.893304372264538e-05
7804000000.0 7.400460162898526e-05 0.00023573961516376585
7808000000.0 0.00019828461518045515 -0.0001478943886468187
7812000000.0 -0.00013385567581281066 -8.778018673183396e-05
7816000000.0 -0.0001622475974727422 0.00012844365846831352
7820000000.0 0.00022762730077374727 0.0001826148509280756
7824000000.0 0.0001367840013699606 -0.0002802113303914666
7828000000.0 -0.00018228159751743078 -0.00017302976630162448
7832000000.0 -9.38383091124706e-05 0.00020394432067405432
7836000000.0 0.0002834828046616167 4.7488680138485506e-05
7840000000.0 2.5306544557679445e-05 -0.0003484842018224299
7844000000.0 -0.00030234441510401666 4.235780579620041e-05
7848000000.0 -1.4414156794373412e-05 0.0003121530753560364
7852000000.0 0.0004136386269237846 -8.097681711660698e-05
7856000000.0 -0.00015483055904041976 -0.0004303415771573782
7860000000.0 -0.0003820145793724805 0.00025787498452700675
7864000000.0 0.0004068557755090296 0.00040512107079848647
7868000000.0 0.00034995144233107567 -0.00043230623123236
7872000000.0 -0.0006573718274012208 -0.00024659393238835037
7876000000.0 -0.00013194033817853779 0.0006468684296123683
7880000000.0 0.0007470067939721048 -2.300531377841253e-05
7884000000.0 -0.0002287729294039309 -0.0006801041308790445
7888000000.0 -0.0006322709377855062 0.00043600169010460377
7892000000.0 0.0006128795212134719 0.0005325352540239692
7896000000.0 0.0002514973748475313 -0.0006390995695255697
7900000000.0 -0.000657594355288893 -0.0001527851854916662
7904000000.0 -3.552184352884069e-05 0.0005818898207508028
7908000000.0 0.0005640219314955175 -8.639632869744673e-05
7912000000.0 -0.00016422662883996964 -0.0005608981591649354
7916000000.0 -0.0004354831762611866 0.0001695448881946504
7920000000.0 0.0003625779354479164 0.0004477745678741485
7924000000.0 0.0002919678227044642 -0.00041067818528972566
7928000000.0 -0.0003368947946000844 -0.00024241731443908066
7932000000.0 -0.0002468973689246923 0.0003348194877617061
7936000000.0 0.00033272794098593295 0.00018252793233841658
7940000000.0 2.3368098482023925e-05 -0.0004030743148177862
7944000000.0 -0.00042259678593836725 -9.822480205912143e-05
7948000000.0 -3.848391497740522e-05 0.00046816011308692396
7952000000.0 0.0003832491929642856 -2.020436841121409e-05
7956000000.0 -8.642880129627883e-05 -0.0004127506981603801
7960000000.0 -0.0003399097186047584 0.00013502636284101754
7964000000.0 0.00012483017053455114 0.0003429063071962446
7968000000.0 0.0002963429142255336 -0.00020510957983788103
7972000000.0 -0.00022109111887402833 -0.00028548578848131
7976000000.0 -0.0003643276577349752 0.00029956651269458234
7980000000.0 0.00040271878242492676 0.0002500164555385709
7984000000.0 0.00018221540085505694 -0.00037251823232509196
7988000000.0 -0.00043420589645393193 -0.0002447002043481916
7992000000.0 -0.00016599716036580503 0.00045335496542975307
7996000000.0 0.0004138846124988049 2.8331402063486166e-05
8000000000.0 -6.006985131534748e-05 -0.0005027460283599794
