! Created with skrf 1.10.0 (http://scikit-rf.org).
# Hz S RI R 50.0 
!freq ReS11 ImS11
!
6000000000.0 9.851973300101236e-05 -0.00023435649927705526
6001000000.0 -7.699873822275549e-05 -0.00015413576329592615
6002000000.0 -0.00013659569958690554 -9.995287109632045e-05
6003000000.0 -0.0001894913293654099 -0.00012143802450736985
6004000000.0 -5.00859459862113e-05 0.00020169404160697013
6005000000.0 -0.00013487313117366284 8.34291786304675e-05
6006000000.0 -0.00010948735871352255 7.413514686049893e-05
6007000000.0 9.463208698434755e-05 0.00031612752354703844
6008000000.0 -4.747412458527833e-05 5.5736694775987417e-05
6009000000.0 7.376741268672049e-05 -6.001694782753475e-05
6010000000.0 0.00022377562709152699 8.248010271927342e-05
6011000000.0 -2.3857433916418813e-05 -0.00010954563185805455
6012000000.0 0.00017686368664726615 -0.0001734707911964506
6013000000.0 9.362958371639252e-05 -0.00020461420353967696
6014000000.0 -2.3718303054920398e-05 -0.00022007511870469898
6015000000.0 -8.27239200589247e-05 -8.884633280104026e-05
6016000000.0 -0.00010808037768583745 -5.214426437305519e-06
6017000000.0 -0.00016248264000751078 4.566391362459399e-05
6018000000.0 -0.00010661110718501732 5.41349763807375e-05
6019000000.0 -0.00010398972517577931 5.107084143674001e-05
6020000000.0 -0.00011261691543040797 9.645621321396902e-05
6021000000.0 2.851883982657455e-05 0.00022351095685735345
6022000000.0 7.90189005783759e-05 0.00024226417008321732
6023000000.0 0.00020032498287037015 -4.578673269861611e-06
6024000000.0 0.0002868676674552262 5.6444969231961295e-05
6025000000.0 0.00034037380828522146 -1.923782292578835e-05
6026000000.0 9.838480036705732e-05 -0.00010666499292710796
6027000000.0 0.00011259115854045376 -0.0003051506064366549
6028000000.0 -3.1119630875764415e-05 -0.0003387494944036007
6029000000.0 -0.00013449792459141463 -0.00010434256546432152
6030000000.0 -0.00012320798123255372 -0.00012307903671171516
6031000000.0 -0.00031209035660140216 0.000139022376970388
6032000000.0 -0.00015385654114652425 9.018205309985206e-05
6033000000.0 4.172270928393118e-05 0.00033891620114445686
6034000000.0 0.0001267190818907693 0.00022312487999442965
6035000000.0 0.0003029719810001552 0.0002747481921687722
6036000000.0 0.00018579621973913163 0.0002129021886503324
6037000000.0 0.0003554228460416198 -0.0001541074161650613
6038000000.0 0.00030809789313934743 -0.00010449991532368585
6039000000.0 0.00010727920744102448 -0.00028429977828636765
6040000000.0 -6.778928218409419e-05 -0.00023499947565142065
6041000000.0 -0.0001946956617757678 -0.00033989769872277975
6042000000.0 -0.0002664338971953839 -0.0002824152761604637
6043000000.0 -0.00045404097181744874 3.534354254952632e-05
6044000000.0 -0.00030162782059051096 0.00011437002831371501
6045000000.0 -8.532434003427625e-05 0.00034688657615333796
6046000000.0 -1.3919949196861126e-05 0.0004343927721492946
6047000000.0 4.931586227030493e-05 0.0002465273719280958
6048000000.0 0.00036289088893681765 0.0001738585124257952
6049000000.0 0.00039852011832408607 -0.00011695927241817117
6050000000.0 0.0004229515325278044 -0.0001358204463031143
6051000000.0 0.00012360452092252672 -0.0003028598439414054
6052000000.0 -6.838706758571789e-05 -0.0004317814891692251
6053000000.0 -0.0003664717369247228 -0.0001795197749743238
6054000000.0 -0.0002446303842589259 -0.00020597183902282268
6055000000.0 -0.00039128196658566594 -6.143937935121357e-05
6056000000.0 -0.00030634982977062464 0.00017733515414875
6057000000.0 -0.00022282238933257759 0.0004009077965747565
6058000000.0 -0.00012510117085184902 0.00035810592817142606
6059000000.0 0.00013798435975331813 0.0002807017008308321
6060000000.0 0.0002894349454436451 0.0001477729674661532
6061000000.0 0.00029992262716405094 0.00010699670383473858
6062000000.0 0.0003890622465405613 -9.453667735215276e-05
6063000000.0 0.000282071006949991 -0.0003342283598612994
6064000000.0 0.0001852109853643924 -0.0004812565166503191
6065000000.0 -0.0002824526163749397 -0.0002209949743701145
6066000000.0 -0.0002063116553472355 -0.00014658119471278042
6067000000.0 -0.00016550649888813496 2.8141401344328187e-05
6068000000.0 -0.00012884869647677988 0.00021001056302338839
6069000000.0 -0.0001419740729033947 0.0001622808922547847
6070000000.0 3.4506130759837106e-05 0.00034959142794832587
6071000000.0 4.431627530721016e-05 0.0002974985109176487
6072000000.0 0.0002753700828179717 0.0001695247774478048
6073000000.0 0.00028257741359993815 0.0001520853111287579
6074000000.0 0.0002717970055527985 -4.351202369434759e-05
6075000000.0 0.00022435137361753732 -0.0001075325344572775
6076000000.0 0.0002568761701695621 -0.0002263003698317334
6077000000.0 -0.00012153902207501233 -0.00025831416132859886
6078000000.0 4.64360709884204e-05 -0.00023919693194329739
6079000000.0 -0.0002270014228997752 -9.601096098776907e-05
6080000000.0 -0.0003029195067938417 9.793113713385537e-05
6081000000.0 -0.00021835420920979232 6.92857793183066e-05
6082000000.0 -0.00018410847405903041 0.00011227189679630101
6083000000.0 9.655268513597548e-06 7.336917769862339e-05
6084000000.0 0.00016126754053402692 0.0003440708096604794
6085000000.0 0.00015856200479902327 0.00015907612396404147
6086000000.0 0.00030905241146683693 0.0001499920035712421
6087000000.0 0.00020919529197271913 -0.0001696206018095836
6088000000.0 0.00015197590983007103 -2.3418690034304745e-05
6089000000.0 7.30505635146983e-05 -8.921473636291921e-05
6090000000.0 -3.3568856451893225e-05 -0.00021661304344888777
6091000000.0 4.174651621724479e-05 -0.0002217909204773605
6092000000.0 2.8848720830865204e-05 -0.00011615850235102698
6093000000.0 -0.0002034923090832308 0.0001351338578388095
6094000000.0 -4.393474227981642e-05 0.0002782163501251489
6095000000.0 -6.713129550917074e-05 0.00014718910097144544
6096000000.0 2.9097705919411965e-05 9.775426588021219e-05
6097000000.0 4.522523522609845e-05 0.00010007954551838338
6098000000.0 0.0001128516742028296 0.00011770688433898613
6099000000.0 7.742145680822432e-05 -1.241891641257098e-05
6100000000.0 0.0002150505897589028 9.61343030212447e-05
6101000000.0 0.00010014746658271179 -0.0002468895982019603
6102000000.0 -5.726769450120628e-05 -5.736873936257325e-05
6103000000.0 -7.803049084031954e-05 4.402165723149665e-05
6104000000.0 -0.00010783338075270876 -0.00011253660341026261
6105000000.0 -6.300785025814548e-05 -0.00012888776836916804
6106000000.0 -0.00024429813493043184 0.0001067701741703786
6107000000.0 -0.00032879607169888914 3.204943277523853e-05
6108000000.0 -0.0001956154446816072 0.00028385408222675323
6109000000.0 8.34212260087952e-05 9.221506479661912e-05
6110000000.0 -7.953938620630652e-05 5.283251448418014e-05
6111000000.0 7.93407452874817e-05 8.094561781035736e-05
6112000000.0 0.00023219423019327223 4.982222890248522e-05
6113000000.0 0.0002775111934170127 7.744006143184379e-05
6114000000.0 4.146242281422019e-05 -6.18928752373904e-05
6115000000.0 3.4917855373350903e-05 -0.00021490934886969626
6116000000.0 -6.745787686668336e-05 -0.00012808552128262818
6117000000.0 -0.00021950298105366528 -0.000173323365743272
6118000000.0 -2.4543795007048175e-05 -0.00035967727308161557
6119000000.0 -8.156047988450155e-05 0.00012638731277547777
6120000000.0 -0.00029485177947208285 0.00012102429172955453
6121000000.0 -0.00010368933726567775 -3.117090818705037e-05
6122000000.0 -0.0002339970087632537 0.0003324788121972233
6123000000.0 -2.235698775621131e-05 0.00017205758194904774
6124000000.0 2.396291893091984e-05 0.0002030807954724878
6125000000.0 4.1443163354415447e-05 -2.1969812223687768e-05
6126000000.0 0.0001565166312502697 3.786387969739735e-05
6127000000.0 0.0001409513788530603 3.1023384508443996e-05
6128000000.0 -3.2351679692510515e-05 -5.8316803915658966e-05
6129000000.0 6.399532867362723e-05 9.69778120634146e-05
6130000000.0 -9.022644007927738e-06 -9.640894859330729e-05
6131000000.0 3.4214557672385126e-05 -9.941143071046099e-05
6132000000.0 -0.0001705267932265997 -0.0002069998881779611
6133000000.0 -0.00021601800108328462 0.00012298481306061149
6134000000.0 -0.00021072955860290676 8.075070945778862e-05
6135000000.0 -0.00013204985589254647 0.0001380301546305418
6136000000.0 4.9263322580372915e-05 4.226343662594445e-06
6137000000.0 -2.5398196157766506e-05 0.0002047812449745834
6138000000.0 0.00021004954760428518 0.00010186017607338727
6139000000.0 0.0001904839591588825 -2.6087664082297124e-05
6140000000.0 0.000161851363372989 7.696496140852105e-06
6141000000.0 0.00012641858484130353 -0.00014762829232495278
6142000000.0 -5.784023232990876e-05 -0.0001812994887586683
6143000000.0 -4.351801908342168e-05 -0.00015373260248452425
6144000000.0 -0.0001140115418820642 -0.00015390051703434438
6145000000.0 -2.4890643544495106e-05 0.0001195531731355004
6146000000.0 -0.00018775614444166422 8.463335689157248e-05
6147000000.0 -9.178728214465082e-05 4.397637167130597e-05
6148000000.0 -1.633262581890449e-05 0.00011297227320028469
6149000000.0 6.138270236988319e-06 8.687072113389149e-05
6150000000.0 -0.00012397300451993942 0.00020089148893021047
6151000000.0 4.248682307661511e-05 -5.876472278032452e-05
6152000000.0 0.00010668357572285458 3.528147135511972e-05
6153000000.0 7.562903192592785e-05 -0.00016112042067106813
6154000000.0 1.8707096387515776e-05 -0.00010136640048585832
6155000000.0 0.00010329140786780044 -0.000126504193758592
6156000000.0 -1.8322767800782458e-06 -0.00015246706607285887
6157000000.0 -0.00010140721133211628 -0.0002494791988283396
6158000000.0 -0.00020051142200827599 -3.47049099218566e-05
6159000000.0 1.7001771993818693e-05 7.62700947234407e-05
6160000000.0 -6.427078187698498e-05 9.229830175172538e-05
6161000000.0 7.42802003514953e-05 0.00015472130326088518
6162000000.0 -3.2202937291003764e-05 7.217736856546253e-05
6163000000.0 2.8339891287032515e-05 0.00010908882541116327
6164000000.0 7.924738747533411e-05 -3.136389932478778e-05
6165000000.0 0.00029851653380319476 -0.00017513976490590721
6166000000.0 9.519279410596937e-05 -4.019468906335533e-05
6167000000.0 5.762599175795913e-05 -7.018705946393311e-05
6168000000.0 0.00013674344518221915 -8.504978904966265e-05
6169000000.0 -4.485808312892914e-05 -0.0002806215197779238
6170000000.0 -4.6039123844821006e-05 -7.486808317480609e-05
6171000000.0 -0.00013881274207960814 -0.00010719384590629488
6172000000.0 -0.0002628055226523429 2.6272982722730376e-05
6173000000.0 -0.00021017830295022577 0.00016456989396829158
6174000000.0 8.95041594048962e-05 -7.567169177491451e-06
6175000000.0 -2.035390025412198e-05 0.00022062381322029978
6176000000.0 -3.9779843064025044e-05 0.00021471687068697065
6177000000.0 0.00011134539090562612 0.000125753678730689
6178000000.0 0.00017285528883803636 -5.041457188781351e-05
6179000000.0 0.0002523088187444955 -4.004237416666001e-05
6180000000.0 1.0696938261389732e-05 -0.00017267090152017772
6181000000.0 5.03238188684918e-05 -8.582311420468614e-05
6182000000.0 3.0228356990846805e-05 -0.00022794643882662058
6183000000.0 -0.0001328529033344239 -0.00023206995683722198
6184000000.0 -0.00021363390260376036 -0.00012005306780338287
6185000000.0 -2.2570533474208787e-05 9.645247018852388e-07
6186000000.0 -0.0001608802704140544 7.912152068456635e-05
6187000000.0 -1.6172685946003185e-06 0.00017522666894365102
6188000000.0 -0.0001022896176436916 0.0003199083439540118
6189000000.0 0.00011082358105340973 0.00023005066032055765
6190000000.0 0.00012688573042396456 7.758727588225156e-05
6191000000.0 0.00029348762473091483 3.241754598093394e-08
6192000000.0 8.910289034247398e-05 1.1973402251896914e-05
6193000000.0 0.0001637163368286565 -0.00011013281618943438
6194000000.0 0.00010900297638727352 -7.306916086236015e-05
6195000000.0 0.00010876207670662552 -1.693654303380754e-05
6196000000.0 -8.692622213857248e-05 -0.00020245836640242487
6197000000.0 -0.00011838024511234835 -0.00014972609642427415
6198000000.0 -0.00011387286940589547 -4.7549176088068634e-05
6199000000.0 -7.052988075884059e-05 9.651039363234304e-06
6200000000.0 -0.00023489950399380177 0.0002715389709919691
6201000000.0 -3.4717872040346265e-05 0.00017198713612742722
6202000000.0 0.00010975463374052197 0.00023045412672217935
6203000000.0 0.0001644952571950853 -3.335504879942164e-05
6204000000.0 0.00021556063438765705 0.00016266420425381511
6205000000.0 8.950327173806727e-05 -0.00013680438860319555
6206000000.0 9.72452326095663e-05 -0.00017209158977493644
6207000000.0 8.939659892348573e-05 -0.0003031777741853148
6208000000.0 -5.091924322186969e-05 -0.00020400146604515612
6209000000.0 -9.208980918629095e-05 -0.00032941275276243687
6210000000.0 -0.00019957340555265546 -0.00019653978233691305
6211000000.0 -0.00028491552802734077 -6.377131649060175e-05
6212000000.0 -0.00018016397370956838 -7.283113518496975e-05
6213000000.0 -0.00014772765280213207 5.369964242163405e-07
6214000000.0 -3.9203689084388316e-05 0.0003191711730323732
6215000000.0 6.327765277092112e-06 0.00015317904762923717
6216000000.0 0.0001395801082253456 0.00013611446775030345
6217000000.0 0.00013963249512016773 0.00020327097445260733
6218000000.0 0.0002794982574414462 1.114631140808342e-05
6219000000.0 0.00011818044004030526 -3.671894228318706e-05
6220000000.0 0.00014123051369097084 -0.00018436212849337608
6221000000.0 5.9260459238430485e-05 -0.00023385837266687304
6222000000.0 4.548370270640589e-06 -0.00016781914746388793
6223000000.0 -0.00022925798839423805 -0.00012305962445680052
6224000000.0 -0.0004311940574552864 -9.95037771645002e-05
6225000000.0 -0.00037515818257816136 8.526165038347244e-05
6226000000.0 -0.00023241783492267132 0.00018677285697776824
6227000000.0 -6.172239227453247e-05 0.00031941558700054884
6228000000.0 -4.2005482100648805e-05 0.00034211986348964274
6229000000.0 0.00018404722504783422 0.00031690116156823933
6230000000.0 0.00020704946655314416 0.00012799567775800824
6231000000.0 0.00028115566237829626 -0.00016204149869736284
6232000000.0 0.00026902678655460477 -0.00016666727606207132
6233000000.0 0.00012803463323507458 -0.0003993541467934847
6234000000.0 3.619489689299371e-06 -0.0004189911123830825
6235000000.0 -0.00023743510246276855 -0.0003662283415906131
6236000000.0 -0.0005402748356573284 -0.00018754387565422803
6237000000.0 -0.0004895872552879155 3.599086994654499e-05
6238000000.0 -0.0002673793933354318 0.00017563111032359302
6239000000.0 -0.000209205478313379 0.00034669344313442707
6240000000.0 2.5315748644061387e-05 0.00041856433381326497
6241000000.0 0.0002715917944442481 0.0002478948445059359
6242000000.0 0.00042163702892139554 0.0002817513595800847
6243000000.0 0.000495641608722508 5.9511999097594526e-06
6244000000.0 0.000516323430929333 -0.000396537478081882
6245000000.0 0.0003001820296049118 -0.0004230983031447977
6246000000.0 9.506844799034297e-05 -0.000381413905415684
6247000000.0 -0.00027822560514323413 -0.00039676454616710544
6248000000.0 -0.00042519555427134037 -0.0003530246904119849
6249000000.0 -0.0004642980347853154 8.646258356748149e-05
6250000000.0 -0.00041706900810822845 4.279883796698414e-05
6251000000.0 -0.00038671615766361356 0.0003265141567680985
6252000000.0 -0.00010021642810897902 0.0005595172406174242
6253000000.0 0.0001614009088370949 0.0004051969153806567
6254000000.0 0.00024750505690462887 0.00029817441827617586
6255000000.0 0.0004931844887323678 -6.88750806148164e-05
6256000000.0 0.0003381989081390202 -0.00018805725267156959
6257000000.0 4.629757677321322e-05 -0.00031223284895531833
6258000000.0 -6.941388710401952e-05 -0.0004379651218187064
6259000000.0 -0.00029084060224704444 -0.0003198931226506829
6260000000.0 -0.0003542225167620927 -0.00020816807227674872
6261000000.0 -0.0004171326872892678 -5.80047199036926e-05
6262000000.0 -0.0003245161205995828 -6.822044088039547e-05
6263000000.0 -0.0002624941698741168 0.0003952084225602448
6264000000.0 3.225376713089645e-05 0.0005295368027873337
6265000000.0 1.9942248400184326e-05 0.0003101839974988252
6266000000.0 0.0003426278999540955 0.0003218678757548332
6267000000.0 0.0003295773931313306 6.315345672192052e-05
6268000000.0 0.00029655746766366065 -0.00015259780047927052
6269000000.0 0.0003778468235395849 -0.0003544565988704562
6270000000.0 0.0001443222863599658 -0.00032824481604620814
6271000000.0 -7.471835124306381e-05 -0.00033325146068818867
6272000000.0 -0.00019811041420325637 -0.00028683507116511464
6273000000.0 -0.00010491878492757678 -6.899561412865296e-05
6274000000.0 -0.000389079621527344 -5.810457150801085e-05
6275000000.0 -0.00026644711033441126 8.053378405747935e-05
6276000000.0 -0.00020941224647685885 0.00038582802517339587
6277000000.0 -7.301266305148602e-05 0.0004874497826676816
6278000000.0 0.00011590072972467169 0.00017982251301873475
6279000000.0 0.00018947427452076226 0.00020244532788638026
6280000000.0 0.0004173843190073967 7.349248335231096e-05
6281000000.0 0.00031139617203734815 6.523406227643136e-06
6282000000.0 7.24721176084131e-05 -8.472587796859443e-05
6283000000.0 -3.2325024221790954e-05 -0.0001791383110685274
6284000000.0 -9.748068987391889e-05 -0.0003530080139171332
6285000000.0 -0.00031163854873739183 -0.00012041071022395045
6286000000.0 -0.00020864234829787165 -7.506939437007532e-05
6287000000.0 -0.00020487990695983171 -1.3583642612502445e-05
6288000000.0 -0.00016591796884313226 3.2719221053412184e-05
6289000000.0 -0.00021027711045462638 0.00017794025188777596
6290000000.0 -8.286690717795864e-05 0.0003519217425491661
6291000000.0 -4.9405036406824365e-05 0.00018644658848643303
6292000000.0 5.781137588201091e-05 0.00036659740726463497
6293000000.0 0.00022988120326772332 0.00015592772979289293
6294000000.0 0.00021571858087554574 8.567159966332838e-05
6295000000.0 0.0001772518880898133 -1.8519849618314765e-05
6296000000.0 -3.90013592550531e-05 -0.00019868368690367788
6297000000.0 2.8726359232678078e-05 -0.0001463873777538538
6298000000.0 -0.00012274651089683175 -0.00035641639260575175
6299000000.0 -0.00011026838183170184 -6.391157512553036e-05
6300000000.0 -0.0001171420663013123 -0.00011420772352721542
6301000000.0 -0.000260377477388829 -6.054230107110925e-05
6302000000.0 -0.00014363945228978992 0.0001878007606137544
6303000000.0 0.0001410220138495788 0.00013895843585487455
6304000000.0 -7.08500447217375e-05 0.00023988918110262603
6305000000.0 7.819978054612875e-05 0.0001814846764318645
6306000000.0 0.0001658617693465203 0.0001718384155537933
6307000000.0 0.00012282328680157661 8.563089795643464e-05
6308000000.0 0.00028694054344668984 -0.00017423632380086929
6309000000.0 9.989383397623897e-05 -0.0002198631555074826
6310000000.0 0.00013248033064883202 -0.00018602862837724388
6311000000.0 -5.9565918490989134e-05 -0.00017803980153985322
6312000000.0 -0.00022053961583878845 -0.00010063220543088391
6313000000.0 -0.00017869465227704495 -4.9828693590825424e-05
6314000000.0 -0.00014672891120426357 -5.591788067249581e-06
6315000000.0 -3.103020571870729e-05 0.00015257605991791934
6316000000.0 -0.00015718393842689693 0.0004038229526486248
6317000000.0 -5.8856428950093687e-05 0.00034614469041116536
6318000000.0 0.00017195349209941924 0.00030937258270569146
6319000000.0 0.0001713692327030003 8.470607281196862e-05
6320000000.0 0.00014446978457272053 4.334954064688645e-05
6321000000.0 0.00021629527327604592 -0.00014225671475287527
6322000000.0 1.8434066078043543e-05 -0.00016567455895710737
6323000000.0 2.5312427169410512e-05 -0.00016122673696372658
6324000000.0 -0.00018755279597826302 -0.00032528999145142734
6325000000.0 -0.00020647245401050895 -0.00012767230509780347
6326000000.0 -0.00029938408988527954 -0.00012018611596431583
6327000000.0 -0.0002455383073538542 -2.3813252028048737e-06
6328000000.0 -7.125600677682087e-05 0.0001458015904063359
6329000000.0 3.3296980745944893e-06 0.0002512107021175325
6330000000.0 -1.1698994057951495e-05 0.00025943489163182676
6331000000.0 0.0002465712314005941 0.0003194224846083671
6332000000.0 0.00022194224584382027 7.673949585296214e-05
6333000000.0 0.0002415385824861005 -0.00010161068348679692
6334000000.0 0.0002704247599467635 1.0569055120868143e-05
6335000000.0 0.00027633251738734543 -9.922061144607142e-05
6336000000.0 0.00011719214671757072 -7.281832949956879e-05
6337000000.0 1.5315352356992662e-05 -0.00010194620699621737
6338000000.0 -0.0002213251282228157 -0.0001537977805128321
6339000000.0 -0.0003076314751524478 1.2946753713549697e-06
6340000000.0 -0.00012119631719542667 -4.3089876271551475e-05
6341000000.0 -6.166935054352507e-05 6.803050200687721e-05
6342000000.0 -0.0001463913795305416 9.603095531929284e-05
6343000000.0 4.936963887303136e-05 0.00010930531425401568
6344000000.0 0.00014381883374881 0.00021683763770852238
6345000000.0 0.00022735371021553874 4.1051156586036086e-05
6346000000.0 0.00018845731392502785 -2.7334903279552236e-05
6347000000.0 0.0003009503416251391 -0.00013176030188333243
6348000000.0 6.61661324556917e-05 -0.00021692601148970425
6349000000.0 2.2568130589206703e-05 -0.0002745307865552604
6350000000.0 -7.234194345073774e-05 -0.000253629608778283
6351000000.0 -0.00012351555051282048 -0.0001772427640389651
6352000000.0 -0.0002916236990131438 -0.00021241241483949125
6353000000.0 -0.0002495109511073679 1.7908872905536555e-05
6354000000.0 -0.00021056846890132874 9.861041326075792e-05
6355000000.0 -0.00010260693670716137 0.0003538836317602545
6356000000.0 3.070208913413808e-05 0.00027867202879860997
6357000000.0 1.3513371413864661e-05 0.00024229612608905882
6358000000.0 0.00010779720469145104 0.00019597723439801484
6359000000.0 0.0003604324592743069 2.9540407922468148e-05
6360000000.0 0.00018378057575318962 -6.20200444245711e-05
6361000000.0 0.0001350638922303915 -0.0003247344575356692
6362000000.0 -2.2246906155487522e-05 -4.336901110946201e-05
6363000000.0 -0.00010625443974277005 -0.0001729793002596125
6364000000.0 -0.00015146071382332593 -0.00023979073739610612
6365000000.0 -0.00021620874758809805 -0.00013561909145209938
6366000000.0 -0.00033131599775515497 4.4915981561644e-05
6367000000.0 -0.00022239171084947884 0.0001683167356532067
6368000000.0 -0.0003369960468262434 0.00019918091129511595
6369000000.0 0.00010993516480084509 0.00020013758330605924
6370000000.0 0.00018537716823630035 0.00016816968854982406
6371000000.0 0.00019461719784885645 0.0001863655197666958
6372000000.0 0.00029726262437179685 9.452911035623401e-05
6373000000.0 0.00026045518461614847 -0.00014144797751214355
6374000000.0 0.0002838159562088549 -0.0001487484114477411
6375000000.0 5.1340557547518983e-05 -0.0002242256741737947
6376000000.0 -8.432503818767145e-05 -7.928594277473167e-05
6377000000.0 -0.00013671755732502788 -0.0001996071805479005
6378000000.0 -0.0002991303044836968 -0.00013242226850707084
6379000000.0 -0.00023573648650199175 1.63279109983705e-05
6380000000.0 -0.00025854853447526693 2.8196684070280753e-05
6381000000.0 -0.00022615186753682792 0.00018395832739770412
6382000000.0 -6.324047717498615e-05 0.0003403665905352682
6383000000.0 1.7109368855017237e-05 0.00011334288137732074
6384000000.0 0.0001567729632370174 0.00016337758279405534
6385000000.0 0.00026137460372410715 -7.60723082748882e-07
6386000000.0 0.0002052180061582476 -0.00021723879035562277
6387000000.0 0.00016723079897928983 -0.0002544749586377293
6388000000.0 0.00011575102689675987 -0.0003069573431275785
6389000000.0 3.9101116271922365e-05 -0.00024864348233677447
6390000000.0 -3.4205877454951406e-05 -0.0002475821238476783
6391000000.0 -0.00029650036594830453 -0.00010850719991140068
6392000000.0 -0.00032658636337146163 2.1373953131842427e-05
6393000000.0 -0.00011961717973463237 5.395650441641919e-05
6394000000.0 -0.00013829261297360063 0.000166276004165411
6395000000.0 4.8351153964176774e-05 0.00017738369933795184
6396000000.0 -2.230928430435597e-06 0.0001863804500317201
6397000000.0 0.00019623573462013155 0.0003218918282072991
6398000000.0 0.00013241278065834194 0.00010093067248817533
6399000000.0 0.00023045417037792504 4.1833834984572604e-05
6400000000.0 0.0002977516851387918 -0.0002704561047721654
6401000000.0 -2.0999685148126446e-05 -0.0002763003285508603
6402000000.0 4.716526382253505e-05 -0.00021628645481541753
6403000000.0 -0.00015775568317621946 -0.0002244477072963491
6404000000.0 -0.0003131589910481125 -0.00018996289873030037
6405000000.0 -0.00039557673153467476 -0.00016367372882086784
6406000000.0 -0.0004121619276702404 0.00015605700900778174
6407000000.0 -0.00018922968592960387 0.000204153562663123
6408000000.0 -0.00011383368109818548 0.00029234247631393373
6409000000.0 5.939612674410455e-05 0.0003482459578663111
6410000000.0 0.000219242851017043 0.0003263780672568828
6411000000.0 0.00042766841943375766 0.00015056705160532147
6412000000.0 0.000367392145562917 8.698716555954888e-05
6413000000.0 0.0003908723301719874 -0.0002701094199437648
6414000000.0 0.00010885223309742287 -0.0002710859989747405
6415000000.0 -1.0558344001765363e-05 -0.00039608243969269097
6416000000.0 -0.00029966587317176163 -0.00034641637466847897
6417000000.0 -0.0003607707330957055 -0.00032491207821294665
6418000000.0 -0.0005685220821760595 -3.4036580473184586e-05
6419000000.0 -0.0005148564232513309 0.00010661585110938177
6420000000.0 -0.0003074375563301146 0.00039269079570658505
6421000000.0 -1.418905594618991e-05 0.0004281174042262137
6422000000.0 0.00016357908316422254 0.0004914284218102694
6423000000.0 0.0003696105850394815 0.0003451321681495756
6424000000.0 0.0005394513718783855 0.00012064074689988047
6425000000.0 0.0005268531385809183 -0.00015029979113023728
6426000000.0 0.0003322684788145125 -0.00041419334593228996
6427000000.0 6.089405724196695e-05 -0.0005611262167803943
6428000000.0 -0.0002151631488231942 -0.0005359415663406253
6429000000.0 -0.0004252414219081402 -0.00040293444180861115
6430000000.0 -0.0005148748750798404 -0.00011785181413870305
6431000000.0 -0.00047381038893945515 0.0001449913252145052
6432000000.0 -0.0003654272004496306 0.0005279560573399067
6433000000.0 -0.0002468677412252873 0.0005171034135855734
6434000000.0 0.0001476707257097587 0.0005493364296853542
6435000000.0 0.00038331272662617266 0.0004284616734366864
6436000000.0 0.0004170267202425748 8.515039371559396e-05
6437000000.0 0.0005593634559772909 -0.000199294721824117
6438000000.0 0.0005029732710681856 -0.0004691439389716834
6439000000.0 0.0002509386104065925 -0.0004942046361975372
6440000000.0 -0.00014410306175705045 -0.0005880294484086335
6441000000.0 -0.00035067382850684226 -0.0004342931497376412
6442000000.0 -0.0005508061731234193 -8.509487815899774e-05
6443000000.0 -0.0007350752130150795 9.574552677804604e-05
6444000000.0 -0.00046995619777590036 0.0004119764780625701
6445000000.0 -0.00020647255587391555 0.0003885272017214447
6446000000.0 3.783552529057488e-05 0.00042220481554977596
6447000000.0 0.0002736806054599583 0.0003288193547632545
6448000000.0 0.00045894260983914137 0.00018515551346354187
6449000000.0 0.0003103085036855191 -3.250271765864454e-05
6450000000.0 0.00043928518425673246 -0.0001951814629137516
6451000000.0 0.00027991787646897137 -0.00040754833025857806
6452000000.0 -0.00010832871339516714 -0.0005104184965603054
6453000000.0 -0.0003264121769461781 -0.000476457760669291
6454000000.0 -0.000487424258608371 -0.00018471809744369239
6455000000.0 -0.00044598447857424617 0.00013428700913209468
6456000000.0 -0.0002518327964935452 0.0003351306659169495
6457000000.0 -0.00021072231174912304 0.00044096115743741393
6458000000.0 -0.0001624629512662068 0.0003777622478082776
6459000000.0 0.0002964927698485553 0.000324644788634032
6460000000.0 0.0003533023118507117 0.00017111343913711607
6461000000.0 0.00048333496670238674 4.214341242914088e-05
6462000000.0 0.00042436941293999553 -0.0001568185252835974
6463000000.0 0.00026050308952108026 -0.0002259581960970536
6464000000.0 8.317154424730688e-05 -0.0003497871512081474
6465000000.0 -0.00012877455446869135 -0.00027370097814127803
6466000000.0 -0.00017796599422581494 -0.00018664475646801293
6467000000.0 -0.0003062182222492993 -0.00018886456382460892
6468000000.0 -0.00027565917116589844 6.231018051039428e-05
6469000000.0 -0.00033138232538476586 0.00010400675819255412
6470000000.0 -0.00014863110845908523 0.00030641473131254315
6471000000.0 -1.9419807358644903e-05 0.00023162733123172075
6472000000.0 0.0001866407401394099 0.00020779980695806444
6473000000.0 0.00017085352737922221 0.0001736461854306981
6474000000.0 0.00022378467838279903 7.96684980741702e-05
6475000000.0 0.00025104533415287733 -6.415347888832912e-05
6476000000.0 0.00018481977167539299 -0.00028883523191325366
6477000000.0 -1.0482256584509742e-05 -0.00027490610955283046
6478000000.0 -2.3136479285312817e-05 -0.0003870438376907259
6479000000.0 -7.06484861439094e-05 -0.00024427002063021064
6480000000.0 -0.00024271896108984947 6.0223464970476925e-06
6481000000.0 -0.000268335483269766 -1.5848483599256724e-05
6482000000.0 -0.00026971340412274003 6.83313119225204e-05
6483000000.0 -0.00013340292207431048 0.00026448655989952385
6484000000.0 -5.2933515689801425e-05 0.0002141120785381645
6485000000.0 2.79380583378952e-05 0.00022897995950188488
6486000000.0 0.00011656601418508217 0.0001827609958127141
6487000000.0 0.000296215177513659 -3.912152237717237e-07
6488000000.0 0.0002515659434720874 -7.260654820129275e-05
6489000000.0 -2.1002306311856955e-05 -0.00011850830924231559
6490000000.0 9.498127474216744e-05 -0.00027274800231680274
6491000000.0 1.274283931707032e-05 -0.00014213040412869304
6492000000.0 -0.00014980639389250427 -1.9719087504199706e-05
6493000000.0 -0.00020468067668844014 -4.589157833834179e-05
6494000000.0 -0.00017590951756574214 -2.351163675484713e-05
6495000000.0 -0.00011518017709022388 -2.634718293847982e-05
6496000000.0 -0.00011864069529110566 0.00017340404156129807
6497000000.0 -0.00011079610703745857 0.00016637427324894816
6498000000.0 5.181057349545881e-05 0.00017798384942580014
6499000000.0 0.00012657656043302268 0.0002441097458358854
6500000000.0 0.00031863446929492056 0.00011036030628019944
6501000000.0 0.00023691123351454735 -0.00010672905045794323
6502000000.0 0.00011232291581109166 -0.00012348408927209675
6503000000.0 0.00011087777966167778 -0.0002217799046775326
6504000000.0 1.0649544492480345e-05 -0.00017507497977931052
6505000000.0 -0.0001695966930128634 -0.0001209046968142502
6506000000.0 -0.00020933862833771855 -0.00011990152415819466
6507000000.0 -0.00010529839346418157 -8.029442687984556e-05
6508000000.0 -0.0002513187355361879 0.0001846283266786486
6509000000.0 -0.00012438009434845299 5.611441520159133e-05
6510000000.0 -6.4286490669474e-05 0.00010688893962651491
6511000000.0 7.329891377594322e-05 0.0002969008928630501
6512000000.0 0.00020681913883890957 7.03677796991542e-05
6513000000.0 0.00024545405176468194 0.0001200913538923487
6514000000.0 0.00018953837570734322 2.569061734902789e-06
6515000000.0 0.00016957834304776043 -0.00015357517986558378
6516000000.0 0.00019031243573408574 -0.0002618806029204279
6517000000.0 1.8641760107129812e-05 -0.00025235844077542424
6518000000.0 3.060954259126447e-05 -0.0002685323415789753
6519000000.0 -0.00010294807725585997 -1.8237977201351896e-05
6520000000.0 -0.0001699258282314986 -0.00017408860730938613
6521000000.0 -0.0003705419658217579 0.00021005747839808464
6522000000.0 -0.00021153186389710754 0.000190906721400097
6523000000.0 -0.00010601933172438294 0.00025838479632511735
6524000000.0 -3.590767300920561e-05 0.0003001737641170621
6525000000.0 0.00013480069173965603 0.00012334912025835365
6526000000.0 0.00015381502453237772 7.168905722210184e-05
6527000000.0 0.0002975454553961754 6.831343398516765e-06
6528000000.0 0.0003382452414371073 -0.00012798963871318847
6529000000.0 9.9079632491339e-05 -0.00011031468602595851
6530000000.0 2.4252474759123288e-05 -0.00023723486810922623
6531000000.0 -5.5382755817845464e-05 -0.00021054991520941257
6532000000.0 -0.00020669943478424102 -0.00021805759752169251
6533000000.0 -0.00016302274889312685 -6.049211515346542e-05
6534000000.0 -0.0001898348273243755 -5.468800009111874e-05
6535000000.0 -0.00015000512939877808 2.460266841808334e-05
6536000000.0 -0.0001402363704983145 0.00025122001534327865
6537000000.0 -3.50519476342015e-05 0.00016587498248554766
6538000000.0 0.00025421247119084 0.00014692115655634552
6539000000.0 0.00012573943240568042 0.00029836170142516494
6540000000.0 7.359063602052629e-05 -1.9886905647581443e-05
6541000000.0 0.0002820915833581239 -1.6327099729096517e-05
6542000000.0 0.00011763683141907677 -0.0002754383604042232
6543000000.0 -2.04470179596683e-05 -0.000231060606893152
6544000000.0 6.231624138308689e-05 -0.0002128962951246649
6545000000.0 -0.00019425277423579246 -0.00015695724869146943
6546000000.0 -0.00021685640967916697 -0.00015707816055510193
6547000000.0 -0.00022304063895717263 -7.65907097957097e-05
6548000000.0 -0.00015069026267156005 0.0001390844554407522
6549000000.0 -0.00012718199286609888 0.00012251264706719667
6550000000.0 0.00012041524314554408 0.00020209776994306594
6551000000.0 0.0002504213189240545 0.00018752658797893673
6552000000.0 0.00017110320914071053 0.00014976097736507654
6553000000.0 0.0001385822397423908 8.066322334343567e-05
6554000000.0 0.0001824151404434815 -2.2243655621423386e-05
6555000000.0 0.00015398510731756687 -0.0001193160205730237
6556000000.0 0.00012869946658611298 -0.0002646511129569262
6557000000.0 -5.6029308325378224e-05 -0.00029894980252720416
6558000000.0 -0.00010963123349938542 -0.0002632421092130244
6559000000.0 -0.00027694861637428403 -6.88679501763545e-05
6560000000.0 -0.00021605730580631644 -3.817006290773861e-05
6561000000.0 -0.00025849384837783873 0.0001823268976295367
6562000000.0 -0.00010663650027709082 0.0002668636734597385
6563000000.0 -8.51692384458147e-05 0.000304612098261714
6564000000.0 0.0001670036290306598 0.00026949215680360794
6565000000.0 0.00022824379266239703 0.00013806327478960156
6566000000.0 0.0002446197031531483 0.0001285733305849135
6567000000.0 0.000238838663790375 -3.4118647818104364e-06
6568000000.0 0.00017958428361453116 -0.00016429563402198255
6569000000.0 0.00012918088759761304 -0.0004135828639846295
6570000000.0 -4.2928459151880816e-05 -0.0001622009731363505
6571000000.0 -8.901521505322307e-05 -0.0001635059161344543
6572000000.0 -0.0003594490699470043 1.3075235074211378e-05
6573000000.0 -0.0001901784271467477 8.871190402715001e-06
6574000000.0 -0.0003392794169485569 0.00016187361325137317
6575000000.0 -0.00024158236919902265 0.00027790607418864965
6576000000.0 0.00010302638111170381 0.0003135615261271596
6577000000.0 0.0001784587075235322 0.00032593696960248053
6578000000.0 0.0003137306484859437 0.00010810867388499901
6579000000.0 0.0002619110746309161 1.5717430869699456e-05
6580000000.0 0.0002244023489765823 -6.797196692787111e-05
6581000000.0 0.0002143815509043634 -0.0003251219750382006
6582000000.0 2.5198025468853302e-05 -0.00016659910033922642
6583000000.0 -6.664196553174406e-05 -0.00017863688117358834
6584000000.0 -0.00015452814113814384 -0.0002314157463843003
6585000000.0 -0.00020683668844867498 -9.19754384085536e-05
6586000000.0 -0.00040230125887319446 1.855220580182504e-05
6587000000.0 -0.0002184558688895777 -2.028522976615932e-05
6588000000.0 -0.00012465502368286252 0.0002778169000521302
6589000000.0 3.1414697332365904e-06 0.0003545935614965856
6590000000.0 0.00016432636766694486 0.0002177146525355056
6591000000.0 0.00027345833950676024 0.0001759466977091506
6592000000.0 0.00018770767201203853 -3.769994145841338e-05
6593000000.0 0.00035038802889175713 -4.7612295020371675e-05
6594000000.0 0.00021100201411172748 -0.00019303010776638985
6595000000.0 0.00018172929412685335 -0.00019080402853433043
6596000000.0 -0.00014341443602461368 -0.0002814252220559865
6597000000.0 -0.00015429995255544782 -0.0001231239439221099
6598000000.0 -0.0003540996403899044 -3.3249714761041105e-05
6599000000.0 -0.00035013013985008 0.00016508903354406357
6600000000.0 -0.00034311163472011685 0.00013232827768661082
6601000000.0 -0.0001351301762042567 0.0003165356465615332
6602000000.0 -9.539216262055561e-05 0.0002630528761073947
6603000000.0 -1.727182825561613e-05 0.0003169169358443469
6604000000.0 0.00018490881484467536 0.00022949455888010561
6605000000.0 0.00034252810291945934 0.0001296057307627052
6606000000.0 0.0003026097547262907 6.059762017684989e-05
6607000000.0 0.00025827932404354215 -0.00014388110139407218
6608000000.0 0.00013882466009818017 -0.0002842029498424381
6609000000.0 -2.7132036848342977e-05 -0.0003373392391949892
6610000000.0 -0.00021143849880900234 -0.00015410923515446484
6611000000.0 -0.00033553707180544734 -9.297854558099061e-05
6612000000.0 -0.0004699429264292121 -6.770162872271612e-05
6613000000.0 -0.0003751950862351805 0.00019647926092147827
6614000000.0 -0.0002762690419331193 0.0002663935592863709
6615000000.0 5.800485496365582e-07 0.0004865274822805077
6616000000.0 0.0002612181706354022 0.0005147717893123627
6617000000.0 0.00020103235146962106 0.00021512823877856135
6618000000.0 0.0004997296491637826 6.882055458845571e-05
6619000000.0 0.0004529703001026064 -0.00020527170272544026
6620000000.0 0.0003621856449171901 -0.0004579551750794053
6621000000.0 4.594387428369373e-05 -0.0005887861480005085
6622000000.0 -0.00020781083730980754 -0.00041797049925662577
6623000000.0 -0.0005577574484050274 -0.00037700627581216395
6624000000.0 -0.000552949495613575 -9.979536844184622e-05
6625000000.0 -0.0004572208854369819 0.00018194383301306516
6626000000.0 -0.00038002972723916173 0.0003854067181237042
6627000000.0 -0.00015928383800201118 0.0005581363220699131
6628000000.0 0.00011096600064774975 0.000581929984036833
6629000000.0 0.0003864059108309448 0.00040087595698423684
6630000000.0 0.0005810383590869606 0.00015576403529848903
6631000000.0 0.0006066861096769571 -0.0002373193419771269
6632000000.0 0.0005859360098838806 -0.000445197569206357
6633000000.0 0.00030520293512381613 -0.0004775780835188925
6634000000.0 -0.00025982660008594394 -0.0007276898249983788
6635000000.0 -0.00042600027518346906 -0.0005482832784764469
6636000000.0 -0.0006677788333036005 -0.00022475521836895496
6637000000.0 -0.0006804029108025134 1.823953425628133e-05
6638000000.0 -0.00039476691745221615 0.00047081970842555165
6639000000.0 -0.00020622136071324348 0.0006028946372680366
6640000000.0 0.00010683306027203798 0.0005482830456458032
6641000000.0 0.00038442498771473765 0.00047408422688022256
6642000000.0 0.0004388221132103354 0.0002313963050255552
6643000000.0 0.0005960190901532769 2.1815272702951916e-05
6644000000.0 0.0005190815427340567 -0.00037999561754986644
6645000000.0 0.0002555898390710354 -0.0005192445241846144
6646000000.0 -3.887973434757441e-05 -0.000606601475737989
6647000000.0 -0.0003328786406200379 -0.0005857971264049411
6648000000.0 -0.0005007759318687022 -0.00026522038388065994
6649000000.0 -0.0005570377688854933 5.17431617481634e-05
6650000000.0 -0.0004113887553103268 0.0002465606085024774
6651000000.0 -0.00018647238903213292 0.00039458979154005647
6652000000.0 -4.585003625834361e-05 0.0006916534621268511
6653000000.0 3.6984170037612785e-06 0.000433917943155393
6654000000.0 0.0003087030490860343 0.0003213777090422809
6655000000.0 0.0004763257165905088 6.739049422321841e-05
6656000000.0 0.0004398625751491636 -0.0003321065451018512
6657000000.0 0.00012002125004073605 -0.00044948176946491003
6658000000.0 0.0001435892772860825 -0.00039487326284870505
6659000000.0 7.77289369580103e-06 -0.0004223377036396414
6660000000.0 -0.00032846114481799304 -0.0003196095349267125
6661000000.0 -0.0003402968286536634 -6.0924383433302864e-05
6662000000.0 -0.0003193429147358984 0.00011377624468877912
6663000000.0 -0.00011031654867110774 0.00022501648345496505
6664000000.0 5.6684042647248134e-05 0.00033118901774287224
6665000000.0 0.0001054943204508163 0.00042280321940779686
6666000000.0 0.00016980843793135136 0.00031329828198067844
6667000000.0 0.0002805094118230045 0.000287791364826262
6668000000.0 0.0003782877465710044 5.688503370038234e-05
6669000000.0 0.00023242140014190227 -0.00012308570148888975
6670000000.0 0.00027407179004512727 -0.0002612480311654508
6671000000.0 -6.978874444030225e-05 -0.00024054775713011622
6672000000.0 -0.00019314594101160765 -0.00023122812854126096
6673000000.0 -0.0003232760354876518 -0.00011071751214331016
6674000000.0 -0.0003618489427026361 3.366334203747101e-05
6675000000.0 -0.0003040651499759406 -2.2855401766719297e-05
6676000000.0 -0.0004391231923364103 0.00014580685819964856
6677000000.0 7.636399823240936e-05 0.00030463573057204485
6678000000.0 5.570460780290887e-05 0.0003140494809485972
6679000000.0 0.00017338413454126567 0.00025033290148712695
6680000000.0 0.00016229788889177144 0.00011944535799557343
6681000000.0 0.00042944279266521335 9.937985305441543e-05
6682000000.0 0.0002610087103676051 -9.65329454629682e-05
6683000000.0 0.00023401954967994243 -0.00020501064136624336
6684000000.0 0.00017215601110365242 -0.00037492235423997045
6685000000.0 -4.126539352000691e-05 -0.00030121300369501114
6686000000.0 -9.679656068328768e-05 -0.00015684492245782167
6687000000.0 -0.0002549195778556168 -0.00015526916831731796
6688000000.0 -0.0003374169173184782 -8.807809354038909e-05
6689000000.0 -0.00017800739442463964 0.00029169738991186023
6690000000.0 -0.00011620913574006408 0.00018851480854209512
6691000000.0 0.00010405257489765063 0.00012907029304187745
6692000000.0 0.00021983051556162536 0.000205661854124628
6693000000.0 0.0002753543376456946 0.00011351378634572029
6694000000.0 0.00023444158432539552 3.947925506508909e-05
6695000000.0 0.00038071913877502084 -0.0001381669717375189
6696000000.0 0.00016277507529594004 -6.18809208390303e-05
6697000000.0 0.00012182393402326852 -0.0002030319010373205
6698000000.0 4.681478822021745e-05 -0.00034362293081358075
6699000000.0 -7.172369805630296e-05 -0.00037836225237697363
6700000000.0 -0.0001719812717055902 -0.00028368804487399757
6701000000.0 -0.0003001049335580319 -3.892675886163488e-05
6702000000.0 -0.000406711915275082 7.974142499733716e-05
6703000000.0 -0.00022995343897491693 0.0002550752542447299
6704000000.0 9.267435962101445e-05 0.00020975318329874426
6705000000.0 6.835000385763124e-05 0.00026828842237591743
6706000000.0 0.00020941151888109744 0.0002960127603728324
6707000000.0 0.0001116743587772362 0.00014041562099009752
6708000000.0 0.00022858436568640172 -0.00025814847322180867
6709000000.0 0.00018512427050154656 -0.00026913374313153327
6710000000.0 0.0001684359012870118 -0.00024025540915317833
6711000000.0 2.7264451318842475e-07 -0.00027306663105264306
6712000000.0 -0.0001407270901836455 -0.0002683584170881659
6713000000.0 -0.00014175474643707275 -2.851667522918433e-05
6714000000.0 -0.00026681882445700467 -0.0001063789677573368
6715000000.0 -0.00019042608619201928 0.00019610323943197727
6716000000.0 -0.0003355185326654464 0.00020309416868258268
6717000000.0 -0.00013277372636366636 0.0002503414871171117
6718000000.0 -4.18523495682166e-06 0.00016378068539779633
6719000000.0 0.00016801538004074246 0.00019153565517626703
6720000000.0 0.0002512077917344868 9.71259651123546e-05
6721000000.0 0.00029842020012438297 -5.520877675735392e-05
6722000000.0 0.00017739318718668073 -0.00020788244728464633
6723000000.0 0.00015370392065960914 -0.00041337343282066286
6724000000.0 2.247317024739459e-05 -0.00025105083477683365
6725000000.0 -0.00022358648129738867 -0.00026693640393204987
6726000000.0 -0.00016036478336900473 -0.00010433996794745326
6727000000.0 -0.0001405861839884892 -6.132223643362522e-05
6728000000.0 -0.00022919192269910127 5.535718082683161e-05
6729000000.0 -0.000127135674119927 0.00029338643071241677
6730000000.0 -1.5469107893295586e-05 0.0002968978660646826
6731000000.0 1.0803782060975209e-05 0.0001976639177883044
6732000000.0 0.00022783548047300428 0.00017833088350016624
6733000000.0 0.00017797519103623927 0.0001228485198225826
6734000000.0 0.0003559741599019617 -2.4531411327188835e-05
6735000000.0 0.00032319751335307956 -7.952294254209846e-05
6736000000.0 0.0001508659915998578 -0.00020956882508471608
6737000000.0 3.0916889954824e-06 -0.00045424496056512
6738000000.0 -0.00014440064842347056 -0.0002664199273567647
6739000000.0 -0.00029700357117690146 -0.00023244810290634632
6740000000.0 -0.0003525961365085095 -6.401311111403629e-05
6741000000.0 -0.00025308920885436237 3.515169009915553e-05
6742000000.0 -0.0002301470813108608 0.00014344500959850848
6743000000.0 -0.00014894815103616565 0.0002528793120291084
6744000000.0 4.51197920483537e-05 0.000353173294570297
6745000000.0 0.00014255367568694055 0.00011845985864056274
6746000000.0 0.00022686118609271944 0.00016261650307569653
6747000000.0 0.0003557871386874467 1.5917648852337152e-05
6748000000.0 0.0002620544983074069 -0.00023051390598993748
6749000000.0 0.0002522566355764866 -0.0003858265408780426
6750000000.0 7.138141518225893e-05 -0.0003740189131349325
6751000000.0 -0.00022192079632077366 -0.00034229957964271307
6752000000.0 -0.00036678899778053164 -1.2228625564603135e-05
6753000000.0 -0.00033954167156480253 4.4341566535877064e-05
6754000000.0 -0.00039311297587119043 0.000139296316774562
6755000000.0 -0.00016981198859866709 0.0002850960590876639
6756000000.0 -0.00016585101548116654 0.0002500420087017119
6757000000.0 -3.593883593566716e-05 0.0002811842714436352
6758000000.0 0.00030824195710010827 0.0003960675385314971
6759000000.0 0.00036503077717497945 6.468315405072644e-05
6760000000.0 0.0002566343464422971 -0.00010539201321080327
6761000000.0 0.0003141190973110497 -0.0001253562222700566
6762000000.0 0.00015938402793835849 -0.00028956634923815727
6763000000.0 -1.2310129932302516e-05 -0.0003044204495381564
6764000000.0 -0.00023496818903367966 -0.0003746661823242903
6765000000.0 -0.00029171298956498504 -0.00015909381909295917
6766000000.0 -0.0002734083973336965 3.873623063554987e-05
6767000000.0 -0.0002996475377585739 0.0001420352782588452
6768000000.0 -0.0002238677116110921 0.0003601317584980279
6769000000.0 4.3998592445859686e-05 0.0004547743301372975
6770000000.0 0.0001382329355692491 0.00040356090175919235
6771000000.0 0.0001453011209378019 0.00019807096396107227
6772000000.0 0.00023492789478041232 0.00014520982222165912
6773000000.0 0.0002455703797750175 -5.370710277929902e-05
6774000000.0 0.0002505343873053789 -0.00010573369945632294
6775000000.0 0.0002433718618704006 -0.00032986074802465737
6776000000.0 -7.621972326887771e-05 -0.0005293759750202298
6777000000.0 -0.00021186369122006 -0.0003386269963812083
6778000000.0 -0.0003432149824220687 -0.00031705285073257983
6779000000.0 -0.0004939131322316825 4.101446393178776e-05
6780000000.0 -0.0004415146540850401 0.000247519084950909
6781000000.0 -9.880858124233782e-05 0.0001323898759437725
6782000000.0 -7.027568062767386e-05 0.00028775035752914846
6783000000.0 0.00013207743177190423 0.00047584835556335747
6784000000.0 0.00014715339057147503 0.0003421307192184031
6785000000.0 0.0003820057900156826 0.00016815275012049824
6786000000.0 0.0003697119536809623 7.859507604734972e-06
6787000000.0 0.000419238000176847 -4.5452226913766935e-05
6788000000.0 0.0002508292091079056 -0.0003563499776646495
6789000000.0 7.058094342937693e-05 -0.0005480574327521026
6790000000.0 -0.0002963633742183447 -0.00029927422292530537
6791000000.0 -0.0003570372937247157 -0.00017334092990495265
6792000000.0 -0.0004871780693065375 2.8352804292808287e-05
6793000000.0 -0.0004021494823973626 -6.319127714959905e-05
6794000000.0 -0.0004618605598807335 0.0003372057690285146
6795000000.0 -0.00012391901691444218 0.0004764309851452708
6796000000.0 0.0002127370098605752 0.0005802014493383467
6797000000.0 0.00035215565003454685 0.0004653990035876632
6798000000.0 0.000542996684089303 0.00016933976439759135
6799000000.0 0.000626802968326956 2.280360604345333e-05
6800000000.0 0.0003294898779131472 -0.0003346783050801605
6801000000.0 0.00021600356558337808 -0.0007105186232365668
6802000000.0 5.411084202933125e-06 -0.0005936771049164236
6803000000.0 -0.0004243572475388646 -0.0006334806093946099
6804000000.0 -0.0004614092467818409 -0.0003442429006099701
6805000000.0 -0.000743883429095149 -4.7212757635861635e-05
6806000000.0 -0.00046230596490204334 0.0001321255840593949
6807000000.0 -0.00044157408410683274 0.0004189721366856247
6808000000.0 -0.00022588447609450668 0.0006935265846550465
6809000000.0 0.00028807311900891364 0.0008817761554382741
6810000000.0 0.0006603754591196775 0.0004659260739572346
6811000000.0 0.0006817752728238702 8.505070582032204e-05
6812000000.0 0.0006155734299682081 -0.00029244934557937086
6813000000.0 0.0003666964184958488 -0.0006724635022692382
6814000000.0 0.00022853398695588112 -0.0007545316475443542
6815000000.0 -0.000191872168215923 -0.0008437992073595524
6816000000.0 -0.0006303390837274492 -0.0004696348332799971
6817000000.0 -0.0007474591257050633 -0.00016434375720564276
6818000000.0 -0.0008558371337130666 0.0002346182009205222
6819000000.0 -0.0006258267094381154 0.000488875200971961
6820000000.0 -0.00033962694578804076 0.0007811402319930494
6821000000.0 0.000152377353515476 0.0007125227130018175
6822000000.0 0.0004351290117483586 0.0005733520956709981
6823000000.0 0.0009502377943135798 0.0003030412772204727
6824000000.0 0.0006791784544475377 -0.00019445206271484494
6825000000.0 0.0007531428127549589 -0.000539475935511291
6826000000.0 0.0001391124096699059 -0.0007796813151799142
6827000000.0 -0.000139144467539154 -0.0009379771654494107
6828000000.0 -0.0005477973609231412 -0.0006562276976183057
6829000000.0 -0.0008133224910125136 -0.0003903972974512726
6830000000.0 -0.0005933062639087439 6.22171355644241e-05
6831000000.0 -0.0007201969856396317 0.00047544093104079366
6832000000.0 -0.0003202322986908257 0.0008552293293178082
6833000000.0 0.00021407200256362557 0.0007587075233459473
6834000000.0 0.00043180916691198945 0.0006714921910315752
6835000000.0 0.0007493577431887388 0.00028886907966807485
6836000000.0 0.0007952851592563093 -8.803344826446846e-05
6837000000.0 0.0008092260104604065 -0.0003503185580484569
6838000000.0 0.0004405885119922459 -0.0006213098531588912
6839000000.0 -3.8298127037705854e-05 -0.0005314850714057684
6840000000.0 -0.0005177516723051667 -0.0006879857974126935
6841000000.0 -0.0005660405149683356 -0.0002314893645234406
6842000000.0 -0.0005913848290219903 0.00018140353495255113
6843000000.0 -0.0006834648083895445 0.0003498255682643503
6844000000.0 -0.00025648073642514646 0.0005036365473642945
6845000000.0 -4.927144254907034e-05 0.000553465390112251
6846000000.0 0.0003170520067214966 0.0004874762671533972
6847000000.0 0.0004981874953955412 0.00030591938411816955
6848000000.0 0.0003617250476963818 0.0002823695249389857
6849000000.0 0.0005958428955636919 -0.0002707850653678179
6850000000.0 0.00037091205012984574 -0.0002799562062136829
6851000000.0 5.875475108041428e-05 -0.0005082216812297702
6852000000.0 2.418662916170433e-05 -0.0005633346736431122
6853000000.0 -0.00034263357520103455 -0.00033182417973876
6854000000.0 -0.00047681014984846115 -0.00011366849503247067
6855000000.0 -0.0004878623294644058 4.882000575889833e-05
6856000000.0 -0.000308052112814039 0.0002607961359899491
6857000000.0 5.952676656306721e-05 0.0005422083777375519
6858000000.0 0.00011151195940328762 0.0005001376266591251
6859000000.0 0.00030612380942329764 0.0003264578990638256
6860000000.0 0.00024655205197632313 0.0002664961793925613
6861000000.0 0.0004541211237665266 0.00015891999646555632
6862000000.0 0.00021582026965916157 -0.00031690439209342003
6863000000.0 0.00016202912956941873 -0.0004437665338627994
6864000000.0 0.00011887896107509732 -0.00040135910967364907
6865000000.0 -0.00016273802611976862 -0.0005890185129828751
6866000000.0 -0.00019700835400726646 -0.0003005470789503306
6867000000.0 -0.0005113835213705897 -7.829415699234232e-05
6868000000.0 -0.00022327584156300873 -8.823919051792473e-05
6869000000.0 -0.0003283526748418808 0.00012785816215910017
6870000000.0 -0.00015354956849478185 0.0003798273392021656
6871000000.0 -5.083210453449283e-06 0.00028378385468386114
6872000000.0 1.9573455574573018e-05 0.00041513159521855414
6873000000.0 0.0003439084975980222 0.00025287785683758557
6874000000.0 0.0003393808729015291 6.396033859346062e-05
6875000000.0 0.00030237488681450486 2.340459468541667e-05
6876000000.0 0.00024143724294845015 -0.00011686170910252258
6877000000.0 0.0001333440886810422 -0.0002686195366550237
6878000000.0 -8.910572796594352e-05 -0.0003684347029775381
6879000000.0 -0.0002953500079456717 -0.0002930196060333401
6880000000.0 -0.00037539927870966494 -0.000286138616502285
6881000000.0 -0.00026367235113866627 -9.859428973868489e-05
6882000000.0 -0.00015041934966575354 8.129182970151305e-05
6883000000.0 -0.00022684314171783626 0.0004575899802148342
6884000000.0 -9.514590055914596e-05 0.00034527404932305217
6885000000.0 0.0001632360217627138 0.0003282793622929603
6886000000.0 0.00019648554734885693 0.00012710456212516874
6887000000.0 0.0004798482696060091 9.907081403071061e-05
6888000000.0 0.00027355874772183597 -2.185595440096222e-05
6889000000.0 0.00015589373651891947 -0.0002638881269376725
6890000000.0 0.00012466900807339698 -0.0002665898355189711
6891000000.0 -0.0001307131169596687 -0.0003372322826180607
6892000000.0 -0.00023853921447880566 -0.00018557933799456805
6893000000.0 -0.00026678797439672053 -0.0002533945953473449
6894000000.0 -0.00030882551800459623 1.863744000729639e-05
6895000000.0 -0.00022012584668118507 0.00014140066923573613
6896000000.0 -0.00024881912395358086 0.000297132704872638
6897000000.0 -5.986609903629869e-05 0.000299251260003075
6898000000.0 0.0001198229001602158 0.000285382877336815
6899000000.0 1.2783194506482687e-05 0.0001537969510536641
6900000000.0 0.00020888703875243664 0.00021030673815403134
6901000000.0 0.00029769548564217985 -0.00013316882541403174
6902000000.0 0.00019964015518780798 -0.00021761762036476284
6903000000.0 0.00022210259339772165 -0.0001514783944003284
6904000000.0 -2.8319213015493006e-05 -0.0003042380849365145
6905000000.0 -0.00012673727178480476 -0.00018137393635697663
6906000000.0 -0.00024947308702394366 -0.00026296236319467425
6907000000.0 -0.00033800420351326466 -0.00012774828064721078
6908000000.0 -0.0002350721333641559 0.00021580688189715147
6909000000.0 -0.00019870074174832553 7.811756222508848e-05
6910000000.0 -0.00012389750918373466 0.00033511369838379323
6911000000.0 0.00019297022663522512 0.0002846111310645938
6912000000.0 0.00010424804349895567 9.436537948204204e-05
6913000000.0 0.0003377391258254647 0.00010139498044736683
6914000000.0 0.00032678412389941514 5.5470278311986476e-05
6915000000.0 0.00031171535374596715 -0.0001559324882691726
6916000000.0 0.00016626286378595978 -0.0002237589069409296
6917000000.0 -9.031712579599116e-06 -0.00024674591259099543
6918000000.0 -2.8457945518312044e-05 -0.00024001717974897474
6919000000.0 -0.00024919334100559354 -0.00021933614334557205
6920000000.0 -0.00019170265295542777 6.888537609484047e-05
6921000000.0 -0.0003412776568438858 8.463304402539507e-05
6922000000.0 -0.00024518626742064953 0.00011911866022273898
6923000000.0 -9.24976120586507e-06 0.00025437306612730026
6924000000.0 7.904853555373847e-05 0.00027666467940434813
6925000000.0 0.00018653823644854128 0.00019769604841712862
6926000000.0 0.0003729403542820364 0.0001534139009891078
6927000000.0 0.0003416920662857592 4.393549170345068e-05
6928000000.0 0.00023014286125544459 -0.00011125018500024453
6929000000.0 0.00018817336240317672 -0.00027897139079868793
6930000000.0 -2.1242462025838904e-05 -0.0003223130479454994
6931000000.0 -7.342532626353204e-05 -0.000418713636463508
6932000000.0 -0.00017721283074934036 -0.00020000826043542475
6933000000.0 -0.0002874229394365102 -1.852793138823472e-05
6934000000.0 -0.00028612453024834394 -7.351566455326974e-05
6935000000.0 -0.0003008487110491842 0.00017891658353619277
6936000000.0 -0.00010133633622899652 0.0002558115229476243
6937000000.0 3.0296027034637518e-05 0.00033421246916987
6938000000.0 1.8591304979054257e-05 0.00022335071116685867
6939000000.0 0.00024376196961384267 0.00026064514531753957
6940000000.0 0.00027919269632548094 2.989165750477696e-06
6941000000.0 0.00025798604474402964 -0.00022537501354236156
6942000000.0 0.0001809699460864067 -0.0001745280751492828
6943000000.0 0.0001258744450751692 -0.00020972112542949617
6944000000.0 -0.00016684815636835992 -0.0003558663884177804
6945000000.0 -0.00018747510330285877 -0.00031766551546752453
6946000000.0 -0.00029907943098805845 -0.00013398549344856292
6947000000.0 -0.00025720775010995567 -3.960513640777208e-05
6948000000.0 -0.0002252267877338454 0.00010564107651589438
6949000000.0 2.1551913960138336e-05 0.0001064843381755054
6950000000.0 -0.0001312500680796802 0.00028136465698480606
6951000000.0 5.626237179967575e-05 0.0002382060483796522
6952000000.0 0.00023711253015790135 0.0001282639568671584
6953000000.0 0.0002509551413822919 0.0002035150391748175
6954000000.0 0.0003165325615555048 -9.790578042156994e-05
6955000000.0 0.0001572910841787234 -0.00016581536328885704
6956000000.0 2.6363792130723596e-05 -0.00012094918929506093
6957000000.0 -7.425808144034818e-05 -0.00037344195879995823
6958000000.0 -0.00019277042883913964 -0.0002970107307191938
6959000000.0 -0.00034044976928271353 -0.0002320901257917285
6960000000.0 -0.00029218182316981256 3.6024124710820615e-05
6961000000.0 -0.00028724875301122665 0.00018528771761339158
6962000000.0 -0.00010140470112673938 0.0002536232059355825
6963000000.0 -1.3198305168771185e-05 0.00028911049594171345
6964000000.0 0.0001670011697569862 0.00037096760934218764
6965000000.0 0.00010842305346159264 9.628925181459635e-05
6966000000.0 0.0003621845389716327 0.00011187081690877676
6967000000.0 0.0003004622121807188 -0.00013642397243529558
6968000000.0 0.00019374377734493464 -0.00010281275899615139
6969000000.0 0.000173674343386665 -0.00034312764182686806
6970000000.0 -0.00012125898501835763 -0.00037664076080545783
6971000000.0 -0.0001888017141027376 -0.00034532893914729357
6972000000.0 -0.00037304568104445934 -0.00017293709970545024
6973000000.0 -0.0003514402487780899 3.8070062146289274e-05
6974000000.0 -0.00023482099641114473 6.023643436492421e-05
6975000000.0 -0.0002357415942242369 0.0003821002028416842
6976000000.0 5.154742552804237e-07 0.0003216339973732829
6977000000.0 0.00037184939719736576 0.0003249030269216746
6978000000.0 0.0002257143787574023 0.00023539010726381093
6979000000.0 0.0002679916506167501 -5.0063885282725096e-05
6980000000.0 0.0002690378751140088 -0.00012535747373476624
6981000000.0 0.00031221838435158134 -0.0001659659028518945
6982000000.0 5.391379090724513e-05 -0.00033077190164476633
6983000000.0 -7.137834472814575e-05 -0.00044186500599607825
6984000000.0 -0.00021280720829963684 -0.00030590244568884373
6985000000.0 -0.000264097674516961 -0.0002065915905404836
6986000000.0 -0.00038497819332405925 -0.00013548167771659791
6987000000.0 -0.00032732010004110634 0.00017724087228998542
6988000000.0 -0.00017120513075497001 0.0002440516254864633
6989000000.0 -0.00010108355490956455 0.00032443521195091307
6990000000.0 0.0001940920774359256 0.00025635914062149823
6991000000.0 0.00026129718753509223 0.0003277490905020386
6992000000.0 0.00031350154313258827 0.00015780828834977
6993000000.0 0.00036574818659573793 -4.712098598247394e-05
6994000000.0 0.0003406042233109474 -7.790362724335864e-05
6995000000.0 0.0003170948475599289 -0.0003559878095984459
6996000000.0 -2.0454848709050566e-05 -0.0005126913310959935
6997000000.0 -0.0001398521853843704 -0.0004576795035973191
6998000000.0 -0.000241032728808932 -0.0003214591706637293
6999000000.0 -0.0004767432692460716 -5.980099376756698e-05
7000000000.0 -0.0004003924550488591 0.00023199873976409435
