! Created with skrf 1.10.0 (http://scikit-rf.org).
# Hz S RI R 50.0 
!freq ReS11 ImS11
!
6000000000.0 -0.0011131553910672665 0.0006687992718070745
6001000000.0 -0.0006086208741180599 0.0011294921860098839
6002000000.0 4.7310415538959205e-05 0.001180354505777359
6003000000.0 0.0006522987387143075 0.0011544794542714953
6004000000.0 0.0011105025187134743 0.0006502019241452217
6005000000.0 0.0012783718993887305 8.245171193266287e-05
6006000000.0 0.00117873668204993 -0.0006304962444119155
6007000000.0 0.0006898120627738535 -0.0011114573571830988
6008000000.0 0.00016141196829266846 -0.0014022353570908308
6009000000.0 -0.0003468886425253004 -0.0012046635383740067
6010000000.0 -0.0010342097375541925 -0.0009068627841770649
6011000000.0 -0.0011961092241108418 -0.0002448300365358591
6012000000.0 -0.001344268792308867 0.0002828385622706264
6013000000.0 -0.0008896926301531494 0.0008349493145942688
6014000000.0 -0.00036450556945055723 0.0011137692490592599
6015000000.0 0.00021210788690950722 0.0012390960473567247
6016000000.0 0.0008019025553949177 0.0010515257017686963
6017000000.0 0.0011531717609614134 0.0005545499152503908
6018000000.0 0.0012923855101689696 -0.00010310517973266542
6019000000.0 0.0010803909972310066 -0.000681533885654062
6020000000.0 0.0005671627586707473 -0.001119941589422524
6021000000.0 -7.851072041376028e-06 -0.0013280553976073861
6022000000.0 -0.0006118013989180326 -0.0012279588263481855
6023000000.0 -0.0009274304029531777 -0.0007059750496409833
6024000000.0 -0.001293999725021422 -9.057694842340425e-05
6025000000.0 -0.001198811223730445 0.00045340906945057213
6026000000.0 -0.0008505851728841662 0.0010441242484375834
6027000000.0 -0.00022818209254182875 0.0012371594784781337
6028000000.0 0.0004718463169410825 0.0011998733971267939
6029000000.0 0.0009651602013036609 0.0008999239071272314
6030000000.0 0.001296469708904624 0.0003177798062097281
6031000000.0 0.0012964357156306505 -0.0003609948616940528
6032000000.0 0.0009040807490237057 -0.0008703800267539918
6033000000.0 0.00036456185625866055 -0.0012109183007851243
6034000000.0 -0.000282903085462749 -0.0011809690622612834
6035000000.0 -0.0008757109171710908 -0.0008805126999504864
6036000000.0 -0.0012371133780106902 -0.0004604757996276021
6037000000.0 -0.0012145075015723705 0.00013911690621171147
6038000000.0 -0.000988244661130011 0.000687275780364871
6039000000.0 -0.00043112493585795164 0.0009868568740785122
6040000000.0 0.00012661312939599156 0.0011187270283699036
6041000000.0 0.0006846717442385852 0.000994356581941247
6042000000.0 0.0010413191048428416 0.0005336467293091118
6043000000.0 0.0011180539149791002 -7.415820437017828e-05
6044000000.0 0.0009364532888866961 -0.000558168045245111
6045000000.0 0.0005408963188529015 -0.000930668436922133
6046000000.0 -1.0688594556995668e-05 -0.0010815083514899015
6047000000.0 -0.00043852784438058734 -0.0009648462291806936
6048000000.0 -0.0007971543818712234 -0.0005299764452502131
6049000000.0 -0.0010416158474981785 -0.0001655082596698776
6050000000.0 -0.0010019011097028852 0.00039001155528239906
6051000000.0 -0.0007374838460236788 0.0007650451152585447
6052000000.0 -0.00024279835633933544 0.0010085242101922631
6053000000.0 0.00021968236251268536 0.0009755076025612652
6054000000.0 0.0006201312644407153 0.000708501785993576
6055000000.0 0.0009202941437251866 0.00034766862518154085
6056000000.0 0.0009974082931876183 -0.00015699669893365353
6057000000.0 0.0008152816444635391 -0.0005490442272275686
6058000000.0 0.0004349146911408752 -0.0008775463793426752
6059000000.0 4.324187830206938e-05 -0.0010262810392305255
6060000000.0 -0.0004648714093491435 -0.0008122686995193362
6061000000.0 -0.0008447968284599483 -0.00042827159631997347
6062000000.0 -0.0009706330602057278 -8.757071918807924e-05
6063000000.0 -0.000803288072347641 0.0003155058657284826
6064000000.0 -0.0005065377335995436 0.0007718730485066772
6065000000.0 -0.00010800301242852584 0.0009344485006295145
6066000000.0 0.0002604056498967111 0.0008947689202614129
6067000000.0 0.0006287785363383591 0.0006295748171396554
6068000000.0 0.0009034488466568291 0.0002656641008798033
6069000000.0 0.0008010058663785458 -0.00021213800937402993
6070000000.0 0.0006760621909052134 -0.0005300141056068242
6071000000.0 0.00032565987203270197 -0.0008413449977524579
6072000000.0 -4.4641306885750964e-05 -0.0008248947560787201
6073000000.0 -0.0003564267826732248 -0.0007405040669254959
6074000000.0 -0.0007442364003509283 -0.00047998217632994056
6075000000.0 -0.000865165377035737 6.47134640985314e-07
6076000000.0 -0.0007835843716748059 0.0004199628019705415
6077000000.0 -0.00044258596608415246 0.0006646429537795484
6078000000.0 -0.00014554249355569482 0.0009544006315991282
6079000000.0 0.0003064993361476809 0.0007724878960289061
6080000000.0 0.0005158861167728901 0.0005715087754651904
6081000000.0 0.0007745437906123698 0.0002046587032964453
6082000000.0 0.0008260274771600962 -0.0002351984876440838
6083000000.0 0.0006747489096596837 -0.0005868401494808495
6084000000.0 0.00036636239383369684 -0.0007549648871645331
6085000000.0 8.47012415761128e-06 -0.000992793939076364
6086000000.0 -0.00038844687514938414 -0.0008174028480425477
6087000000.0 -0.000684632221236825 -0.0004230064223520458
6088000000.0 -0.0010073541197925806 -4.4858774344902486e-05
6089000000.0 -0.0007989896112121642 0.00029075154452584684
6090000000.0 -0.0005605609621852636 0.0007319361320696771
6091000000.0 -0.00016877967573236674 0.0008627552888356149
6092000000.0 0.00019209258607588708 0.0008464543498121202
6093000000.0 0.0005605900660157204 0.0005609333165921271
6094000000.0 0.0007922142976894975 0.0002711766283027828
6095000000.0 0.0009697708883322775 -0.0002015658828895539
6096000000.0 0.0007173097692430019 -0.0005690506659448147
6097000000.0 0.0004308860225137323 -0.0009035958210006356
6098000000.0 -0.00011630582594079897 -0.0009089928353205323
6099000000.0 -0.00046071194810792804 -0.0007939834613353014
6100000000.0 -0.0008180272416211665 -0.0004207958991173655
6101000000.0 -0.0009361754637211561 0.00015188951510936022
6102000000.0 -0.0007447987445630133 0.0004588030860759318
6103000000.0 -0.0005070027546025813 0.0009501221938990057
6104000000.0 0.00013740386930294335 0.0011148488847538829
6105000000.0 0.0006094027194194496 0.0007479755440726876
6106000000.0 0.0007406000513583422 0.000483689975226298
6107000000.0 0.0008276572916656733 -3.687042772071436e-05
6108000000.0 0.0008596809348091483 -0.00034689903259277344
6109000000.0 0.0005650856764987111 -0.0007043565274216235
6110000000.0 0.00017871939053293318 -0.0011020929086953402
6111000000.0 -0.0005437288200482726 -0.0006915933918207884
6112000000.0 -0.0007421192131005228 -0.0006421371945179999
6113000000.0 -0.000852203113026917 4.120463017898146e-06
6114000000.0 -0.000777160981670022 0.0004201781121082604
6115000000.0 -0.0007711719954386353 0.0007977570639923215
6116000000.0 -0.0002276846644235775 0.0009937419090420008
6117000000.0 0.0003387972537893802 0.000924518855754286
6118000000.0 0.0006604359950870275 0.0005856085917912424
6119000000.0 0.0007983690593391657 0.00026967781013809144
6120000000.0 0.000732775719370693 -0.0002884806308429688
6121000000.0 0.000538875290658325 -0.0008003289112821221
6122000000.0 0.00013823698100168258 -0.0009056448470801115
6123000000.0 -0.00022453171550296247 -0.0008870898745954037
6124000000.0 -0.0005790982395410538 -0.0006235920591279864
6125000000.0 -0.0007940311916172504 -0.00022104394156485796
6126000000.0 -0.0007531903102062643 9.148667595582083e-05
6127000000.0 -0.0008038328378461301 0.0006381635321304202
6128000000.0 -0.0004525219846982509 0.0008369299466721714
6129000000.0 0.00013881709310226142 0.0008040188113227487
6130000000.0 0.0003249304136261344 0.0006098882295191288
6131000000.0 0.0009089636732824147 0.0004438858013600111
6132000000.0 0.0010700629791244864 4.593240373651497e-05
6133000000.0 0.0007966834818944335 -0.0004411363916005939
6134000000.0 0.0005380910006351769 -0.0007704721065238118
6135000000.0 -0.00016333238454535604 -0.0009939557639881968
6136000000.0 -0.00044536663335748017 -0.0009326617000624537
6137000000.0 -0.0006618031184189022 -0.0005273050046525896
6138000000.0 -0.0009157386957667768 -0.0001894188899314031
6139000000.0 -0.0009185739327222109 0.00027813352062366903
6140000000.0 -0.0005502209533005953 0.0006394453812390566
6141000000.0 -0.0001532800233690068 0.0008511648047715425
6142000000.0 0.0002919385442510247 0.0008885271963663399
6143000000.0 0.0005758064799010754 0.0006330448086373508
6144000000.0 0.0008900021784938872 0.00027273056912235916
6145000000.0 0.00101770693436265 -0.00014076591469347477
6146000000.0 0.0007681252900511026 -0.0006062237662263215
6147000000.0 0.00031218843651004136 -0.0008666719659231603
6148000000.0 -5.080167466076091e-05 -0.0008846474811434746
6149000000.0 -0.00038370618131011724 -0.0006961373146623373
6150000000.0 -0.0008363269735127687 -0.0004663346044253558
6151000000.0 -0.0009998457971960306 7.74787476984784e-05
6152000000.0 -0.0008434805204160511 0.0004732524394057691
6153000000.0 -0.0003939736052416265 0.0007030381239019334
6154000000.0 -3.3791606256272644e-05 0.0008103008149191737
6155000000.0 0.0003958913148380816 0.0007957795169204473
6156000000.0 0.0007050535641610622 0.00040274401544593275
6157000000.0 0.0007909658015705645 0.00019007538503501564
6158000000.0 0.0007839426980353892 -0.00041870365384966135
6159000000.0 0.0002866275899577886 -0.0006394271622411907
6160000000.0 -1.4661675777460914e-05 -0.0008032565820030868
6161000000.0 -0.00016610462625976652 -0.0006799569819122553
6162000000.0 -0.0006571022677235305 -0.0004197523230686784
6163000000.0 -0.0007003869977779686 -0.00010241611016681418
6164000000.0 -0.0007020984776318073 0.00021902423759456724
6165000000.0 -0.0003742011613212526 0.0005799924256280065
6166000000.0 -0.00018929775978904217 0.0007720195571891963
6167000000.0 -1.081321170204319e-05 0.0007709506899118423
6168000000.0 0.00044887568219564855 0.000563727633561939
6169000000.0 0.0006329531315714121 0.00038745583151467144
6170000000.0 0.0006929199444130063 -0.00010033211583504453
6171000000.0 0.0006287657888606191 -0.00046800923882983625
6172000000.0 0.0001878478069556877 -0.0005576085532084107
6173000000.0 -3.040279625565745e-05 -0.0008158470736816525
6174000000.0 -0.00027923897141590714 -0.0004923101514577866
6175000000.0 -0.0005542348371818662 -0.0004485669487621635
6176000000.0 -0.0007073973538354039 -0.00014554789231624454
6177000000.0 -0.0005736922612413764 0.00027350045274943113
6178000000.0 -0.0004372779803816229 0.0004393081471789628
6179000000.0 -0.00018703607202041894 0.0006728112348355353
6180000000.0 8.402073581237346e-05 0.0005300800548866391
6181000000.0 0.0004786332428921014 0.00042039656545966864
6182000000.0 0.0006142804049886763 0.00015262614761013538
6183000000.0 0.0006268050638027489 -0.00019237029482610524
6184000000.0 0.00048761768266558647 -0.0003520972386468202
6185000000.0 0.0003198792110197246 -0.0005600029835477471
6186000000.0 -0.00010629126336425543 -0.0005925989826209843
6187000000.0 -0.0002293015131726861 -0.0005224032211117446
6188000000.0 -0.0005184630863368511 -0.00020779114856850356
6189000000.0 -0.0006341249099932611 -8.330435434800165e-07
6190000000.0 -0.0004165730788372457 0.00014114011719357222
6191000000.0 -0.00025509970146231353 0.0004120395751670003
6192000000.0 -4.302641536924057e-05 0.00042868361924774945
6193000000.0 0.0002662463521119207 0.0005024581914767623
6194000000.0 0.00036790024023503065 0.0003028371720574796
6195000000.0 0.0004164872516412288 0.00016915406740736216
6196000000.0 0.0005231070681475103 -0.00010690197814255953
6197000000.0 0.0004855440347455442 -0.0002485571021679789
6198000000.0 0.00022526316752191633 -0.0004437290772330016
6199000000.0 2.674820825632196e-05 -0.00044495382462628186
6200000000.0 -0.00027665900415740907 -0.00047517582424916327
6201000000.0 -0.0004891669959761202 -0.00035688330535776913
6202000000.0 -0.0006300670793280005 -3.99117107008351e-06
6203000000.0 -0.0005758284823969007 0.000205958669539541
6204000000.0 -0.00041224961751140654 0.0005501500563696027
6205000000.0 -0.00013461639173328876 0.0006876281113363802
6206000000.0 0.0002689867978915572 0.0005590027431026101
6207000000.0 0.0005319936899468303 0.000406489270972088
6208000000.0 0.0006336298538371921 0.00014733223360963166
6209000000.0 0.0005618967115879059 -0.0002703437057789415
6210000000.0 0.00043636676855385303 -0.0005088691250421107
6211000000.0 9.918242722051218e-05 -0.0005660492461174726
6212000000.0 -0.00021562491019722074 -0.0005952303763478994
6213000000.0 -0.0004077029007021338 -0.00038606743328273296
6214000000.0 -0.0005903162527829409 -6.276163185248151e-05
6215000000.0 -0.0006289014709182084 0.00022130008437670767
6216000000.0 -0.00043566670501604676 0.0005101328133605421
6217000000.0 -0.00013077819312456995 0.0006130578112788498
6218000000.0 -1.4598767847928684e-05 0.0005846721469424665
6219000000.0 0.0004578425723593682 0.00043102115159854293
6220000000.0 0.0005539975827559829 0.00026276122662238777
6221000000.0 0.0005816841148771346 -8.440755482297391e-05
6222000000.0 0.0003690660814754665 -0.0004355135897640139
6223000000.0 0.0002763567608781159 -0.0005620008450932801
6224000000.0 -1.403400437993696e-05 -0.0006384772714227438
6225000000.0 -0.00036225863732397556 -0.0004459068877622485
6226000000.0 -0.0005209403461776674 -0.00026183752925135195
6227000000.0 -0.00047008428373374045 -2.6876593395286363e-08
6228000000.0 -0.0005251927650533617 0.00034081010380759835
6229000000.0 -0.00041718187276273966 0.0005050709005445242
6230000000.0 -9.075328125618398e-05 0.0005989529308862984
6231000000.0 6.508198566734791e-05 0.0004851302073802799
6232000000.0 0.0004217083042021841 0.00045462424168363214
6233000000.0 0.0004985106643289328 0.00011230271775275469
6234000000.0 0.000507742224726826 -8.265653013950214e-05
6235000000.0 0.00038385725929401815 -0.0003584591904655099
6236000000.0 0.0002697987947613001 -0.0004716356925200671
6237000000.0 -0.00015372803318314254 -0.0004974375478923321
6238000000.0 -0.0002507403551135212 -0.00046279386151582
6239000000.0 -0.0004228178004268557 -0.0002708123647607863
6240000000.0 -0.00046398822451010346 1.7409067368134856e-05
6241000000.0 -0.0005403371178545058 0.00026495649944990873
6242000000.0 -0.00027120887534692883 0.0003884070029016584
6243000000.0 2.5413248295080848e-05 0.0006279455847106874
6244000000.0 0.00024343113182112575 0.0005863570258952677
6245000000.0 0.0004263421578798443 0.00039039592957124114
6246000000.0 0.0004978946526534855 0.00019348425848875195
6247000000.0 0.0005753914592787623 -0.00013534098980017006
6248000000.0 0.0005194267723709345 -0.0004727582272607833
6249000000.0 0.00014415101031772792 -0.0005798612837679684
6250000000.0 -1.9224831703468226e-05 -0.0006276778876781464
6251000000.0 -0.00018529292719904333 -0.0005608205101452768
6252000000.0 -0.00040622393134981394 -0.0003142076311632991
6253000000.0 -0.0005123494192957878 -2.083848448819481e-05
6254000000.0 -0.0005340729258023202 0.00024269745335914195
6255000000.0 -0.00033007783349603415 0.0003327205195091665
6256000000.0 -0.00018073475803248584 0.0005805726395919919
6257000000.0 0.00017343169020023197 0.0005575459217652678
6258000000.0 0.0004670837370213121 0.0003714684280566871
6259000000.0 0.000604580738581717 0.00018029172497335821
6260000000.0 0.0006838628905825317 -7.217899110401049e-05
6261000000.0 0.0005224772030487657 -0.00037731544580310583
6262000000.0 0.00033757303026504815 -0.0006256574997678399
6263000000.0 -0.00016537136980332434 -0.0007593388436362147
6264000000.0 -0.0006141939666122198 -0.0005698927561752498
6265000000.0 -0.0008582263253629208 -0.00013676134403795004
6266000000.0 -0.0008041767287068069 0.00033750812872312963
6267000000.0 -0.0004620697000063956 0.0007061453070491552
6268000000.0 4.066633846377954e-05 0.0008851683815009892
6269000000.0 0.0005828829016536474 0.0007967913406901062
6270000000.0 0.0009164750808849931 0.00035315254353918135
6271000000.0 0.0008892666082829237 -0.00012709989096038043
6272000000.0 0.0008214188856072724 -0.0005066875019110739
6273000000.0 0.0004077418416272849 -0.0008820416987873614
6274000000.0 -8.43472225824371e-05 -0.0008896206854842603
6275000000.0 -0.0005211796960793436 -0.0006715960334986448
6276000000.0 -0.0008499557734467089 -0.0002738639013841748
6277000000.0 -0.0008515025838278234 4.9402908189222217e-05
6278000000.0 -0.000696907751262188 0.00035590617335401475
6279000000.0 -0.0004871427663601935 0.000786498305387795
6280000000.0 -8.632886601844802e-05 0.0009470608201809227
6281000000.0 0.00044179815449751914 0.0007428476237691939
6282000000.0 0.0008338666521012783 0.0006363383727148175
6283000000.0 0.0009285442647524178 0.0002093918592436239
6284000000.0 0.0008323778165504336 -0.0001954319595824927
6285000000.0 0.0005327043472789228 -0.0006556843873113394
6286000000.0 0.00014875346096232533 -0.0009462144807912409
6287000000.0 -0.00028823604225181043 -0.0008982300059869885
6288000000.0 -0.0007222015992738307 -0.0007065618992783129
6289000000.0 -0.0008456853684037924 -0.0002504819422028959
6290000000.0 -0.0010159482480958104 0.0001512817107141018
6291000000.0 -0.000766086857765913 0.0005488369497470558
6292000000.0 -0.00039706536335870624 0.0008001095266081393
6293000000.0 0.00011911453475477174 0.0009125107317231596
6294000000.0 0.0005269303801469505 0.0008909804746508598
6295000000.0 0.0007842267514206469 0.0004566687857732177
6296000000.0 0.000978302676230669 2.320440034964122e-05
6297000000.0 0.0008573178783990443 -0.00041923238313756883
6298000000.0 0.000581104657612741 -0.0007957479683682323
6299000000.0 0.00020550863700918853 -0.001062952564097941
6300000000.0 -0.00029972477932460606 -0.0009807919850572944
6301000000.0 -0.0007638847455382347 -0.0007031580316834152
6302000000.0 -0.000939807272516191 -0.0001772329560481012
6303000000.0 -0.0009615782182663679 0.000294574536383152
6304000000.0 -0.0007954032043926418 0.0007223619031719863
6305000000.0 -0.0003234047326259315 0.0010614757193252444
6306000000.0 0.00022222277766559273 0.0010062012588605285
6307000000.0 0.000768051017075777 0.0007673146901652217
6308000000.0 0.0010995735647156835 0.0004202732816338539
6309000000.0 0.0010147778084501624 -0.00022029141837265342
6310000000.0 0.0008995383977890015 -0.0006906551425345242
6311000000.0 0.0004111659654881805 -0.0011404294054955244
6312000000.0 -0.000122273457236588 -0.0011820857180282474
6313000000.0 -0.0007369809318333864 -0.0009591879788786173
6314000000.0 -0.0010375111596658826 -0.0005371077568270266
6315000000.0 -0.0011209346121177077 8.564074232708663e-05
6316000000.0 -0.001001826603896916 0.0006230896688066423
6317000000.0 -0.0006078501464799047 0.0010836676228791475
6318000000.0 1.6735104509280063e-05 0.001200501574203372
6319000000.0 0.0005395202897489071 0.0010101530933752656
6320000000.0 0.0009849158814176917 0.0006363854045048356
6321000000.0 0.0011872898321598768 0.00017936194490175694
6322000000.0 0.001114551443606615 -0.0004280961584299803
6323000000.0 0.0007492386503145099 -0.0008985230815596879
6324000000.0 0.0002444941783323884 -0.0011051308829337358
6325000000.0 -0.00029477066709659994 -0.0011374203022569418
6326000000.0 -0.0008804906974546611 -0.0008686129585839808
6327000000.0 -0.0011119954288005829 -0.0004129541921429336
6328000000.0 -0.0011626948835328221 0.0002684660430531949
6329000000.0 -0.0009708837606012821 0.0007484443485736847
6330000000.0 -0.0005075727240182459 0.001112852361984551
6331000000.0 9.399803093401715e-05 0.0011993725784122944
6332000000.0 0.0007160122040659189 0.0007865562802180648
6333000000.0 0.0010604258859530091 0.0005512774223461747
6334000000.0 0.0011682139011099935 2.868562842195388e-05
6335000000.0 0.0010247653117403388 -0.0005546389729715884
6336000000.0 0.0006728003500029445 -0.000999222043901682
6337000000.0 0.00022166383860167116 -0.0011250762036070228
6338000000.0 -0.00044865469681099057 -0.000988637562841177
6339000000.0 -0.0008445597486570477 -0.0007238055695779622
6340000000.0 -0.0011000280501320958 -0.0003128524112980813
6341000000.0 -0.0010764355538412929 0.0003082198090851307
6342000000.0 -0.0008066918235272169 0.000699567433912307
6343000000.0 -0.000346498767612502 0.0010231230407953262
6344000000.0 0.0001841923367464915 0.0010895055020228028
6345000000.0 0.0006258091307245195 0.0009295757627114654
6346000000.0 0.0009860029676929116 0.0005630520172417164
6347000000.0 0.0011301200138404965 -5.014390990254469e-05
6348000000.0 0.001014388632029295 -0.0005868287407793105
6349000000.0 0.0005025974242016673 -0.0010182390687987208
6350000000.0 0.00014682715118397027 -0.0010557675268501043
6351000000.0 -0.0004235825326759368 -0.001043500262312591
6352000000.0 -0.0008405868429690599 -0.000709132116753608
6353000000.0 -0.0011289375834167004 -0.00028127527912147343
6354000000.0 -0.0010555546032264829 0.0003684352559503168
6355000000.0 -0.0008578026317991316 0.0006370320916175842
6356000000.0 -0.0004272092191968113 0.0010806747013702989
6357000000.0 0.000120455828437116 0.0011107202153652906
6358000000.0 0.0005868638399988413 0.0009223049855791032
6359000000.0 0.001024241209961474 0.0005167665658518672
6360000000.0 0.0011241553584113717 -2.121297802659683e-05
6361000000.0 0.0010312491795048118 -0.0005544652813114226
6362000000.0 0.0007209896575659513 -0.0009735631174407899
6363000000.0 8.133734809234738e-05 -0.0011759561020880938
6364000000.0 -0.00046149990521371365 -0.0011702354531735182
6365000000.0 -0.0009062520111910999 -0.0007521990337409079
6366000000.0 -0.0011387283448129892 -0.000215190026210621
6367000000.0 -0.0012586505617946386 0.0003410114150028676
6368000000.0 -0.0008894912898540497 0.0008485740981996059
6369000000.0 -0.0003424432943575084 0.0011873121839016676
6370000000.0 0.0001941029477166012 0.0012964196503162384
6371000000.0 0.0007826453074812889 0.0009358801762573421
6372000000.0 0.0012076107086613774 0.0004808722296729684
6373000000.0 0.0012921217130497098 -9.630165004637092e-05
6374000000.0 0.0010770591907203197 -0.0007429247489199042
6375000000.0 0.0005757835460826755 -0.001253837370313704
6376000000.0 -8.976525714388117e-05 -0.0012927663046866655
6377000000.0 -0.0007477988838218153 -0.0011727686505764723
6378000000.0 -0.0012143116910010576 -0.0006751449545845389
6379000000.0 -0.0014353346778079867 7.292591362784151e-06
6380000000.0 -0.0011963836150243878 0.0007636171067133546
6381000000.0 -0.0007602734840475023 0.0011752283899113536
6382000000.0 -7.019406621111557e-05 0.0013514680322259665
6383000000.0 0.0004970004665665329 0.001266967155970633
6384000000.0 0.0011301743797957897 0.0008665837231092155
6385000000.0 0.001358361099846661 0.00016911483544390649
6386000000.0 0.0013561738887801766 -0.0003824556479230523
6387000000.0 0.0009397813701070845 -0.0010238043032586575
6388000000.0 0.0002825316332746297 -0.0012790814507752657
6389000000.0 -0.000344537605997175 -0.0013644823338836432
6390000000.0 -0.0009824488079175353 -0.0009749870514497161
6391000000.0 -0.001238179742358625 -0.0005236821016296744
6392000000.0 -0.001346577424556017 0.00020720444445032626
6393000000.0 -0.0011012261966243386 0.0008186789928004146
6394000000.0 -0.0006591444835066795 0.0011503994464874268
6395000000.0 0.00010688488691812381 0.0013031305279582739
6396000000.0 0.0006390476482920349 0.001094821491278708
6397000000.0 0.0010000894544646144 0.0007207362214103341
6398000000.0 0.0012364904396235943 0.00012219154450576752
6399000000.0 0.0012262873351573944 -0.00044550877646543086
6400000000.0 0.0008545140735805035 -0.0008890371536836028
6401000000.0 0.00033529341453686357 -0.0012532604159787297
6402000000.0 -0.0002517792454455048 -0.0012735751224681735
6403000000.0 -0.000791547354310751 -0.0011036077048629522
6404000000.0 -0.0011990680359303951 -0.0005307695246301591
6405000000.0 -0.0013110835570842028 0.00011054873903049156
6406000000.0 -0.0011313497088849545 0.0006889006472192705
6407000000.0 -0.0006728742737323046 0.0011337666073814034
6408000000.0 -3.316639413242228e-05 0.0013897428289055824
6409000000.0 0.000586075009778142 0.0012986782239750028
6410000000.0 0.0011731362901628017 0.0008746767998673022
6411000000.0 0.0014182381564751267 0.0002445442951284349
6412000000.0 0.0013534091413021088 -0.00045820846571587026
6413000000.0 0.0009868611814454198 -0.0010601083049550653
6414000000.0 0.00041280980804003775 -0.0014549350598827004
6415000000.0 -0.00043024285696446896 -0.0014384164242073894
6416000000.0 -0.001062620198354125 -0.0011690736282616854
6417000000.0 -0.0014648673823103309 -0.00046135022421367466
6418000000.0 -0.0014679570449516177 0.00027012143982574344
6419000000.0 -0.0012266522971913218 0.0009317468502558768
6420000000.0 -0.0006541085313074291 0.0013770253863185644
6421000000.0 0.00011857502249768004 0.001627717399969697
6422000000.0 0.0008199918665923178 0.0013088217237964272
6423000000.0 0.0014876003842800856 0.0007462784415110946
6424000000.0 0.0016079318011179566 -2.6730780518846586e-05
6425000000.0 0.0013883945066481829 -0.0007393559208139777
6426000000.0 0.0008489682804793119 -0.0013791724340990186
6427000000.0 0.00010163874685531482 -0.0016772409435361624
6428000000.0 -0.0006926351925358176 -0.001500417129136622
6429000000.0 -0.0013221889967098832 -0.0009858421981334686
6430000000.0 -0.0016059702029451728 -0.00022814264229964465
6431000000.0 -0.0015571829862892628 0.0005450830794870853
6432000000.0 -0.001081615686416626 0.0011965418234467506
6433000000.0 -0.0004156057257205248 0.0016103816451504827
6434000000.0 0.00032186470343731344 0.0015538408188149333
6435000000.0 0.0010969489812850952 0.001240529934875667
6436000000.0 0.0015644452068954706 0.0005546174361370504
6437000000.0 0.0015964650083333254 -0.00021873024525120854
6438000000.0 0.001308136503212154 -0.000969536486081779
6439000000.0 0.0006390249473042786 -0.0013572433963418007
6440000000.0 -2.1870135242352262e-05 -0.0015566943911835551
6441000000.0 -0.0007572757313027978 -0.0014247521758079529
6442000000.0 -0.0013678626855835319 -0.0008883760310709476
6443000000.0 -0.001586139085702598 -0.00013343767204787582
6444000000.0 -0.001468404894694686 0.0006080801831558347
6445000000.0 -0.0010106697445735335 0.0011978517286479473
6446000000.0 -0.00040663243271410465 0.001504050218500197
6447000000.0 0.00037738762330263853 0.0014734654687345028
6448000000.0 0.0011049966560676694 0.0010835411958396435
6449000000.0 0.0014872991014271975 0.000613474054262042
6450000000.0 0.0015366344014182687 -0.0001258436095668003
6451000000.0 0.0011752101127058268 -0.0008045682916417718
6452000000.0 0.0007959424401633441 -0.0013074517482891679
6453000000.0 5.4914627980906516e-05 -0.0015622280770912766
6454000000.0 -0.0006664947140961885 -0.0014264422934502363
6455000000.0 -0.00123899697791785 -0.00097853341139853
6456000000.0 -0.001525590312667191 -0.0003656134067568928
6457000000.0 -0.0015410581836476922 0.0003944665950257331
6458000000.0 -0.0011690459214150906 0.0010891102720052004
6459000000.0 -0.0005054182256571949 0.0014834851026535034
6460000000.0 0.00013577456411439925 0.0015359694370999932
6461000000.0 0.0009302843827754259 0.0013404997298493981
6462000000.0 0.0014834151370450854 0.0007939668721519411
6463000000.0 0.0016345399199053645 4.06706276407931e-05
6464000000.0 0.0014858527574688196 -0.0007356561836786568
6465000000.0 0.0011075388174504042 -0.0013929085107520223
6466000000.0 0.0003045480989385396 -0.0017730302643030882
6467000000.0 -0.0006049926159903407 -0.0017544375732541084
6468000000.0 -0.0013658697716891766 -0.001375882187858224
6469000000.0 -0.0018713633762672544 -0.0005310808192007244
6470000000.0 -0.0019115422619506717 0.00046099856263026595
6471000000.0 -0.0015858772676438093 0.0013878548052161932
6472000000.0 -0.0007259529666043818 0.002041307743638754
6473000000.0 0.00039021967677399516 0.0022151777520775795
6474000000.0 0.0014650903176516294 0.00185864744707942
6475000000.0 0.0023028673604130745 0.0008720648474991322
6476000000.0 0.002554890001192689 -0.000516499625518918
6477000000.0 0.0018470506183803082 -0.0018277631606906652
6478000000.0 0.0006789549370296299 -0.002655146876350045
6479000000.0 -0.0009604014921933413 -0.002726953011006117
6480000000.0 -0.0023114392533898354 -0.001826707972213626
6481000000.0 -0.002835111925378442 -0.00018985173664987087
6482000000.0 -0.002511249389499426 0.0013439692556858063
6483000000.0 -0.0014487551525235176 0.0024632178246974945
6484000000.0 7.12308319634758e-05 0.002866259776055813
6485000000.0 0.001490828930400312 0.0023123868741095066
6486000000.0 0.0024215460289269686 0.0011137292021885514
6487000000.0 0.0025007962249219418 -0.0001993744954233989
6488000000.0 0.00195481744594872 -0.001348466263152659
6489000000.0 0.0010478978510946035 -0.001979522407054901
6490000000.0 -7.570227171527222e-05 -0.0022185170091688633
6491000000.0 -0.001095461891964078 -0.001764623448252678
6492000000.0 -0.0016278610564768314 -0.001014966401271522
6493000000.0 -0.001839196658693254 -0.00010142054088646546
6494000000.0 -0.0016564070247113705 0.0007038205512799323
6495000000.0 -0.0010853286366909742 0.0012948557268828154
6496000000.0 -0.0003917756548617035 0.001510279718786478
6497000000.0 0.0002802228555083275 0.0015092464163899422
6498000000.0 0.0009185463422909379 0.0011572276707738638
6499000000.0 0.0012486586347222328 0.0006217269692569971
6500000000.0 0.0013540488434955478 1.9156161215505563e-05
6501000000.0 0.0011641933815553784 -0.0005445852875709534
6502000000.0 0.0007186588481999934 -0.000997146125882864
6503000000.0 0.0001834997528931126 -0.0012972416589036584
6504000000.0 -0.0003755247453227639 -0.0011585894972085953
6505000000.0 -0.0008064669673331082 -0.0009050267399288714
6506000000.0 -0.0011194231919944286 -0.00041454131132923067
6507000000.0 -0.0011795246973633766 7.629478204762563e-05
6508000000.0 -0.0009907332714647055 0.0005468331510201097
6509000000.0 -0.0006208493723534048 0.0009800210827961564
6510000000.0 -0.00011154163803439587 0.001096930354833603
6511000000.0 0.00041791467810980976 0.0009333349880762398
6512000000.0 0.0007820283644832671 0.0007186554721556604
6513000000.0 0.0010083079105243087 0.0003465531044639647
6514000000.0 0.0011283239582553506 -0.00020329949620645493
6515000000.0 0.0009278943762183189 -0.0006505884230136871
6516000000.0 0.0005415010382421315 -0.0009291218593716621
6517000000.0 -1.4292189007392153e-05 -0.0010903029469773173
6518000000.0 -0.00048440496902912855 -0.0009530812967568636
6519000000.0 -0.0007953649619594216 -0.0007188254385255277
6520000000.0 -0.001099587301723659 -0.0002310196723556146
6521000000.0 -0.0010318697895854712 0.00030477592372335494
6522000000.0 -0.000867966387886554 0.0008076622034423053
6523000000.0 -0.0004377031873445958 0.0010844268836081028
6524000000.0 0.000100445315183606 0.0011924264254048467
6525000000.0 0.0006770780892111361 0.000990653526969254
6526000000.0 0.001012499094940722 0.0005824222462251782
6527000000.0 0.0011700571049004793 5.950617924099788e-05
6528000000.0 0.0010745401959866285 -0.0005255861324258149
6529000000.0 0.000711779750417918 -0.001014844048768282
6530000000.0 0.00018935247499030083 -0.0011583013692870736
6531000000.0 -0.0003550846304278821 -0.0012593509163707495
6532000000.0 -0.0009647149126976728 -0.0008841349626891315
6533000000.0 -0.0012289772275835276 -0.0002821560192387551
6534000000.0 -0.001280216732993722 0.0003329159808345139
6535000000.0 -0.0009961840696632862 0.0009077208233065903
6536000000.0 -0.0005377218476496637 0.001204347237944603
6537000000.0 0.00021894283418077976 0.0013039475306868553
6538000000.0 0.000743751646950841 0.0010304738534614444
6539000000.0 0.001230793772265315 0.0005704460781998932
6540000000.0 0.0012449035421013832 -8.936896483646706e-05
6541000000.0 0.0011755101149901748 -0.0006984888459555805
6542000000.0 0.0006490388186648488 -0.0011696983128786087
6543000000.0 3.883584577124566e-05 -0.001239582197740674
6544000000.0 -0.0005498110549524426 -0.0012017685221508145
6545000000.0 -0.001057366724126041 -0.0007714680978097022
6546000000.0 -0.0012813173234462738 -0.00026922463439404964
6547000000.0 -0.0012467247433960438 0.00040429309592582285
6548000000.0 -0.0008761674398556352 0.0008815665496513247
6549000000.0 -0.0003512709809001535 0.0012253245804458857
6550000000.0 0.00023697891447227448 0.0012452832888811827
6551000000.0 0.0008214102126657963 0.0009188975091092288
6552000000.0 0.0011139657581225038 0.0004640037950593978
6553000000.0 0.0012045585317537189 -2.1035915779066272e-05
6554000000.0 0.001065194490365684 -0.0006451266235671937
6555000000.0 0.0006468152860179543 -0.0010459523182362318
6556000000.0 0.0001643100695218891 -0.0012363020796328783
6557000000.0 -0.00045273525756783783 -0.0010841195471584797
6558000000.0 -0.0009242966771125793 -0.0007918585906736553
6559000000.0 -0.0011523935245350003 -0.00024206579837482423
6560000000.0 -0.0011957595124840736 0.0003217043704353273
6561000000.0 -0.0009354996145702899 0.0008174640242941678
6562000000.0 -0.00042489360203035176 0.0011497458908706903
6563000000.0 0.0001516093616373837 0.0011429243022575974
6564000000.0 0.0007240818231366575 0.0010122868698090315
6565000000.0 0.001042307005263865 0.0005145978066138923
6566000000.0 0.0011928108287975192 2.492998100933619e-05
6567000000.0 0.0011285116197541356 -0.0004977814387530088
6568000000.0 0.0007800665916875005 -0.0009208815754391253
6569000000.0 0.0002078303077723831 -0.0011912661138921976
6570000000.0 -0.00029135250952094793 -0.0011370745487511158
6571000000.0 -0.0008077097591012716 -0.0009185699163936079
6572000000.0 -0.0012091563548892736 -0.00044064741814509034
6573000000.0 -0.0012693280586972833 9.427704208064824e-05
6574000000.0 -0.0010333862155675888 0.0007208487950265408
6575000000.0 -0.0007312017260119319 0.0010908765252679586
6576000000.0 -9.177718311548233e-05 0.0012434704694896936
6577000000.0 0.000560728192795068 0.0012762112310156226
6578000000.0 0.0010410021059215069 0.0008666341891512275
6579000000.0 0.0013306232867762446 0.0003209983988199383
6580000000.0 0.0014834570465609431 -0.0003724409907590598
6581000000.0 0.0011869057780131698 -0.0010109883733093739
6582000000.0 0.0005393268656916916 -0.0015027292538434267
6583000000.0 -0.00016868785314727575 -0.0016804885817691684
6584000000.0 -0.0009816581150516868 -0.0013785029295831919
6585000000.0 -0.0015853189397603273 -0.0007974958862178028
6586000000.0 -0.0019484834047034383 0.00011254404671490192
6587000000.0 -0.0017757648602128029 0.0010711739305406809
6588000000.0 -0.0009590043337084353 0.001880978001281619
6589000000.0 0.00011806269321823493 0.0023096532095223665
6590000000.0 0.0013109887950122356 0.0019905990920960903
6591000000.0 0.0020831157453358173 0.0010040539782494307
6592000000.0 0.002372295130044222 -0.0002446105645503849
6593000000.0 0.0019517006585374475 -0.0015067521017044783
6594000000.0 0.0008357673650607467 -0.0023061539977788925
6595000000.0 -0.0005167311173863709 -0.0023751570843160152
6596000000.0 -0.0016687315655872226 -0.0017679515294730663
6597000000.0 -0.0022136452607810497 -0.0007052908767946064
6598000000.0 -0.0022087625693529844 0.0004987337742932141
6599000000.0 -0.0015782731352373958 0.0014811151195317507
6600000000.0 -0.0006751319160684943 0.0020081675611436367
6601000000.0 0.000305376248434186 0.0020694835111498833
6602000000.0 0.0012092851102352142 0.001570500317029655
6603000000.0 0.001723275170661509 0.0008944489527493715
6604000000.0 0.001832845970056951 -0.0001927647099364549
6605000000.0 0.0016368853393942118 -0.0009705543634481728
6606000000.0 0.000900426646694541 -0.0015146262012422085
6607000000.0 0.0001543047692393884 -0.0017618807032704353
6608000000.0 -0.0006446514162234962 -0.0017216191627085209
6609000000.0 -0.0013929959386587143 -0.0010865973308682442
6610000000.0 -0.0016884866636246443 -0.0002763521915767342
6611000000.0 -0.0016258169198408723 0.00040598612395115197
6612000000.0 -0.0012754835188388824 0.0012088081566616893
6613000000.0 -0.0005252226255834103 0.001568782958202064
6614000000.0 0.0002329613926121965 0.0015979905147105455
6615000000.0 0.0009604324004612863 0.0012658126652240753
6616000000.0 0.0014156887773424387 0.000763876480050385
6617000000.0 0.0016104551032185555 -7.277073746081442e-05
6618000000.0 0.0013918682234361768 -0.0007469408446922898
6619000000.0 0.0009369669714942575 -0.0013369802618399262
6620000000.0 0.00021714820468332618 -0.0015931236557662487
6621000000.0 -0.0006278356304392219 -0.0015386134618893266
6622000000.0 -0.0012307014549151063 -0.0010873365681618452
6623000000.0 -0.001559613854624331 -0.00039498318801634014
6624000000.0 -0.0015121257165446877 0.00031064695212990046
6625000000.0 -0.0011839191429316998 0.0009693602914921939
6626000000.0 -0.0006214211462065578 0.0015127728693187237
6627000000.0 0.00021883082808926702 0.0015583555214107037
6628000000.0 0.0009040144504979253 0.0013612559996545315
6629000000.0 0.001398062682710588 0.0007828701636753976
6630000000.0 0.0015535876154899597 7.568079308839515e-05
6631000000.0 0.0015076331328600645 -0.000741931376978755
6632000000.0 0.0009826597524806857 -0.0013831919059157372
6633000000.0 0.0002379015350015834 -0.001602877862751484
6634000000.0 -0.000569691532291472 -0.0016308794729411602
6635000000.0 -0.0013327158521860838 -0.001197047415189445
6636000000.0 -0.0017212266102433205 -0.0004122242098674178
6637000000.0 -0.0017633958486840129 0.00042786760604940355
6638000000.0 -0.0013044950319454074 0.0012215902097523212
6639000000.0 -0.0005356137407943606 0.0017210079822689295
6640000000.0 0.00027686465182341635 0.001864739926531911
6641000000.0 0.0012737811775878072 0.0014829495921730995
6642000000.0 0.0018048856873065233 0.0007529653958044946
6643000000.0 0.0019840504974126816 -0.00020848267013207078
6644000000.0 0.0016069671837612987 -0.0011774336453527212
6645000000.0 0.0008162893354892731 -0.001870580017566681
6646000000.0 -0.00019364611944183707 -0.001982323359698057
6647000000.0 -0.001155734178610146 -0.001671153586357832
6648000000.0 -0.0018904927419498563 -0.0008620398002676666
6649000000.0 -0.0020546556916087866 7.491146971005946e-05
6650000000.0 -0.0016444842331111431 0.0011211726814508438
6651000000.0 -0.0008978135883808136 0.00189569394569844
6652000000.0 0.00019897786842193455 0.001990729244425893
6653000000.0 0.0011081589618697762 0.0016949039418250322
6654000000.0 0.0017231317469850183 0.0008579863933846354
6655000000.0 0.0018177647143602371 -8.558022818760946e-05
6656000000.0 0.0015242251101881266 -0.0010596400825306773
6657000000.0 0.0007467965479008853 -0.0015667377738282084
6658000000.0 -6.400588608812541e-05 -0.0016767975175753236
6659000000.0 -0.0007717412663623691 -0.001278750249184668
6660000000.0 -0.0013107855338603258 -0.0007895663729868829
6661000000.0 -0.0014864768600091338 -0.00013537872291635722
6662000000.0 -0.001256218645721674 0.0005753123550675809
6663000000.0 -0.0008162777521647513 0.001025551580823958
6664000000.0 -0.00023362164210993797 0.001205712789669633
6665000000.0 0.00023749245156068355 0.0011606155894696712
6666000000.0 0.0007230481132864952 0.0008613805403001606
6667000000.0 0.0010833879932761192 0.0004499774659052491
6668000000.0 0.0012377550592646003 -8.874347258824855e-05
6669000000.0 0.0009543452179059386 -0.0005610218504443765
6670000000.0 0.0006428426131606102 -0.0008942943532019854
6671000000.0 0.00018971192184835672 -0.001161628752015531
6672000000.0 -0.00031218837830238044 -0.0009477902203798294
6673000000.0 -0.0007160216919146478 -0.000665036728605628
6674000000.0 -0.0009178031468763947 -0.00026945234276354313
6675000000.0 -0.0010303057497367263 8.45178437884897e-05
6676000000.0 -0.0007799884770065546 0.0005470344331115484
6677000000.0 -0.0004761396849062294 0.0008487622253596783
6678000000.0 -4.31085618401994e-06 0.001069799647666514
6679000000.0 0.00043711092439480126 0.0009644427336752415
6680000000.0 0.0008572554215788841 0.0007259361445903778
6681000000.0 0.000996351009234786 0.00017550114716868848
6682000000.0 0.0010202800622209907 -0.00014271863619796932
6683000000.0 0.000821355264633894 -0.0005573275266215205
6684000000.0 0.0004689561028499156 -0.0009698839858174324
6685000000.0 -3.1696006772108376e-05 -0.0010622917907312512
6686000000.0 -0.0005673901177942753 -0.0009369539329782128
6687000000.0 -0.0008893380872905254 -0.000678673037327826
6688000000.0 -0.0011095363879576325 -0.00019270498887635767
6689000000.0 -0.0011113409418612719 0.00029596983222290874
6690000000.0 -0.0008069938630796969 0.0008380580111406744
6691000000.0 -0.0003821487189270556 0.0011562935542315245
6692000000.0 0.0002052124182227999 0.0011867387220263481
6693000000.0 0.0007270497153513134 0.000993540626950562
6694000000.0 0.0011378886410966516 0.0005685221403837204
6695000000.0 0.001240263693034649 4.80406811220746e-07
6696000000.0 0.001224405481480062 -0.0006164402584545314
6697000000.0 0.0007227080641314387 -0.0011485141003504395
6698000000.0 0.00021509638463612646 -0.0014007680583745241
6699000000.0 -0.0005236901924945414 -0.0013896481832489371
6700000000.0 -0.0011900682002305984 -0.0009920941665768623
6701000000.0 -0.001579685602337122 -0.0003126425144728273
6702000000.0 -0.0015392795903608203 0.0004804321797564626
6703000000.0 -0.0011632053647190332 0.00114299519918859
6704000000.0 -0.0005033607012592256 0.00170869508292526
6705000000.0 0.0003267224528826773 0.0016924627125263214
6706000000.0 0.0011407905258238316 0.0012849465711042285
6707000000.0 0.0017299947794526815 0.0006665950641036034
6708000000.0 0.0018263926031067967 -0.00018852789071388543
6709000000.0 0.0014475919306278229 -0.0013112410670146346
6710000000.0 0.0006892360397614539 -0.0017638209974393249
6711000000.0 -0.0003716718638315797 -0.001931289560161531
6712000000.0 -0.0012427071342244744 -0.0014898423105478287
6713000000.0 -0.0018552548717707396 -0.0006584817892871797
6714000000.0 -0.0018831893103197217 0.0003374908701516688
6715000000.0 -0.001527034561149776 0.0012296627974137664
6716000000.0 -0.0007256204262375832 0.001815139316022396
6717000000.0 0.00032591441413387656 0.001904483768157661
6718000000.0 0.0010871585691347718 0.0014435162302106619
6719000000.0 0.001762696891091764 0.000754081760533154
6720000000.0 0.001736559090204537 -0.0001602778647793457
6721000000.0 0.0014352663420140743 -0.000953156326431781
6722000000.0 0.0008351244032382965 -0.0014531058259308338
6723000000.0 2.465013039909536e-06 -0.0016378005966544151
6724000000.0 -0.0008038029191084206 -0.0013895055744796991
6725000000.0 -0.0013437691377475858 -0.0007923891535028815
6726000000.0 -0.001551185385324061 -0.0002445787249598652
6727000000.0 -0.0013481636997312307 0.000532666512299329
6728000000.0 -0.0009780141990631819 0.0010634048376232386
6729000000.0 -0.0003689463483169675 0.001392869628034532
6730000000.0 0.00028257700614631176 0.0013103190576657653
6731000000.0 0.0008314611040987074 0.001020487048663199
6732000000.0 0.0012364232679829001 0.0004665885353460908
6733000000.0 0.0012755405623465776 -5.892923581996001e-05
6734000000.0 0.0011787249241024256 -0.0006612432771362364
6735000000.0 0.0006594992009922862 -0.001019629300571978
6736000000.0 0.0002084572915919125 -0.0012131363619118929
6737000000.0 -0.000450051884399727 -0.0012341089313849807
6738000000.0 -0.0009288990986533463 -0.0008777957409620285
6739000000.0 -0.0012450445210561156 -0.0003637534973677248
6740000000.0 -0.0013142784591764212 0.00010403928172308952
6741000000.0 -0.00111495447345078 0.0006898318533785641
6742000000.0 -0.0006291953031904995 0.0011866124114021659
6743000000.0 5.727240193209582e-08 0.0012740306556224823
6744000000.0 0.0006283914553932846 0.0012004474410787225
6745000000.0 0.0010257019894197583 0.0008404856198467314
6746000000.0 0.00138129445258528 0.00021857138199266046
6747000000.0 0.0013553057797253132 -0.000354967633029446
6748000000.0 0.0011326057137921453 -0.0010053772712126374
6749000000.0 0.0005635233246721327 -0.0013923428487032652
6750000000.0 -7.488403207389638e-05 -0.0015647598775103688
6751000000.0 -0.0008491610060445964 -0.001308130449615419
6752000000.0 -0.0014376023318618536 -0.0007280959980562329
6753000000.0 -0.0018087459029629827 -0.00012476107804104686
6754000000.0 -0.0016377612482756376 0.0007797809084877372
6755000000.0 -0.001181432860903442 0.0015156265581026673
6756000000.0 -0.0003305079007986933 0.0019124342361465096
6757000000.0 0.0006882806192152202 0.0018573631532490253
6758000000.0 0.0014808403793722391 0.0014189396752044559
6759000000.0 0.0022182485554367304 0.0004632150521501899
6760000000.0 0.002277850406244397 -0.0007185951108112931
6761000000.0 0.0016677196836099029 -0.0017723480705171824
6762000000.0 0.0004180193936917931 -0.0025502152275294065
6763000000.0 -0.0010294347302988172 -0.002410190412774682
6764000000.0 -0.0021134510170668364 -0.0016174361808225513
6765000000.0 -0.0028140724170953035 -0.00023467058781534433
6766000000.0 -0.002486706245690584 0.0011890700552612543
6767000000.0 -0.001510613365098834 0.0023123810533434153
6768000000.0 -7.117818313417956e-05 0.0027509359642863274
6769000000.0 0.0013909577392041683 0.002349703572690487
6770000000.0 0.0022079532500356436 0.0012485012412071228
6771000000.0 0.0024624450597912073 -5.7188666687579826e-05
6772000000.0 0.0019534961320459843 -0.0011604761239141226
6773000000.0 0.0011956189991906285 -0.0020278049632906914
6774000000.0 0.0001235100644407794 -0.0023033996112644672
6775000000.0 -0.0009842365980148315 -0.0018509741639718413
6776000000.0 -0.0016656608786433935 -0.0012758236844092607
6777000000.0 -0.002032524673268199 -0.0002859033993445337
6778000000.0 -0.0017440636875107884 0.0006676548509858549
6779000000.0 -0.0013293455122038722 0.0014195316471159458
6780000000.0 -0.00047183962306007743 0.0017072230111807585
6781000000.0 0.00035281392047181726 0.0017119066324084997
6782000000.0 0.001016434864141047 0.0012402648571878672
6783000000.0 0.0015022207517176867 0.0006433508824557066
6784000000.0 0.0016582035459578037 -5.4341694522008765e-06
6785000000.0 0.001312081702053547 -0.0007867086096666753
6786000000.0 0.0009317487711086869 -0.0013613917399197817
6787000000.0 0.0002492432831786573 -0.001542762853205204
6788000000.0 -0.0005103584844619036 -0.0014779564226046205
6789000000.0 -0.0010698126861825585 -0.0010741661535575986
6790000000.0 -0.0015428491169586778 -0.00046670352458022535
6791000000.0 -0.0015508007491007447 0.0002211726241512224
6792000000.0 -0.0012682166416198015 0.0008245226927101612
6793000000.0 -0.0006605040398426354 0.001286907005123794
6794000000.0 -0.00011911672481801361 0.0015285015106201172
6795000000.0 0.000606243556831032 0.0014219089644029737
6796000000.0 0.0012922134483233094 0.0009366382728330791
6797000000.0 0.0015301519306376576 0.00033635570434853435
6798000000.0 0.001548220170661807 -0.00039842689875513315
6799000000.0 0.0012928693322464824 -0.001087013864889741
6800000000.0 0.0005336625035852194 -0.0015716811176389456
6801000000.0 -0.0002651387476362288 -0.0015703770332038403
6802000000.0 -0.0010364271001890302 -0.0014113743091002107
6803000000.0 -0.0016078135231509805 -0.0007467000395990908
6804000000.0 -0.0017889736918732524 -1.332325700786896e-05
6805000000.0 -0.0015712608583271503 0.000898279482498765
6806000000.0 -0.0010468647815287113 0.0016412910772487521
6807000000.0 -6.704926636302844e-05 0.001965029165148735
6808000000.0 0.000841137079987675 0.0018491524970158935
6809000000.0 0.0016384931514039636 0.0011698093730956316
6810000000.0 0.0020784521475434303 0.00015604389773216099
6811000000.0 0.0019136311020702124 -0.0007395257707685232
6812000000.0 0.0011781080393120646 -0.001733276410959661
6813000000.0 0.00023822422372177243 -0.002013070974498987
6814000000.0 -0.0007940579089336097 -0.0020822195801883936
6815000000.0 -0.0017107302555814385 -0.0012458959827199578
6816000000.0 -0.002150539308786392 -0.00024541799211874604
6817000000.0 -0.0018895682878792286 0.0007125033880583942
6818000000.0 -0.0012171616544947028 0.0015028303023427725
6819000000.0 -0.0002799505309667438 0.0019296706886962056
6820000000.0 0.0005834807525388896 0.0017755127046257257
6821000000.0 0.001376375206746161 0.0012131029507145286
6822000000.0 0.0016855936264619231 0.0003884503967128694
6823000000.0 0.001696085324510932 -0.000491103099193424
6824000000.0 0.0012392690405249596 -0.0011901820544153452
6825000000.0 0.0005214802222326398 -0.0016043924260884523
6826000000.0 -0.00034815058461390436 -0.0015822179848328233
6827000000.0 -0.0008054904756136239 -0.001165358698926866
6828000000.0 -0.0013611578615382314 -0.0005970788188278675
6829000000.0 -0.001522117294371128 4.956856355420314e-05
6830000000.0 -0.0012222412042319775 0.0007056127651594579
6831000000.0 -0.0007365915807895362 0.0012238805647939444
6832000000.0 -0.0001435552112525329 0.0013195747742429376
6833000000.0 0.0005058179376646876 0.0012904189061373472
6834000000.0 0.001025243429467082 0.0008740927441976964
6835000000.0 0.0013109969440847635 0.00034244480775669217
6836000000.0 0.001296625123359263 -0.00020881538512185216
6837000000.0 0.0010762952733784914 -0.0008438182412646711
6838000000.0 0.0005415816558524966 -0.0011875034542754292
6839000000.0 1.800069549062755e-05 -0.0012948467629030347
6840000000.0 -0.0006747656152583659 -0.0010546931298449636
6841000000.0 -0.0009029546636156738 -0.0007127982680685818
6842000000.0 -0.0012383294524624944 -0.00013408585800789297
6843000000.0 -0.0012229167623445392 0.00031603043316863477
6844000000.0 -0.0008647492504678667 0.0008878770750015974
6845000000.0 -0.00045431367470882833 0.0012672599405050278
6846000000.0 0.00016202518600039184 0.001294315094128251
6847000000.0 0.0006937369471415877 0.000960471632424742
6848000000.0 0.0010182693367823958 0.0006343171698972583
6849000000.0 0.0012420990969985723 0.000150828025653027
6850000000.0 0.0012285709381103516 -0.0005363475065678358
6851000000.0 0.0009421376162208617 -0.0010499085765331984
6852000000.0 0.000357793498551473 -0.001173160271719098
6853000000.0 -0.00016333635721821338 -0.001289233099669218
6854000000.0 -0.000822328613139689 -0.0010588038712739944
6855000000.0 -0.0012463596649467945 -0.0005540835554711521
6856000000.0 -0.0013479277258738875 -3.794310032390058e-05
6857000000.0 -0.0012828088365495205 0.0006665195105597377
6858000000.0 -0.0009887779597193003 0.001238115131855011
6859000000.0 -0.0003176898753736168 0.001611972926184535
6860000000.0 0.0004997092764824629 0.0016853420529514551
6861000000.0 0.001335731940343976 0.0012959471205249429
6862000000.0 0.0018866527825593948 0.00047174360952340066
6863000000.0 0.0018918768037110567 -0.0003539642784744501
6864000000.0 0.0015310444869101048 -0.0013196882791817188
6865000000.0 0.0008760257624089718 -0.0020977433305233717
6866000000.0 -0.0002904702560044825 -0.002266119234263897
6867000000.0 -0.0015505256596952677 -0.001975392457097769
6868000000.0 -0.0024921144358813763 -0.0007624297286383808
6869000000.0 -0.0026606409810483456 0.0005225828499533236
6870000000.0 -0.0020542850252240896 0.0019342707237228751
6871000000.0 -0.0006048867362551391 0.0027512635570019484
6872000000.0 0.001006774720735848 0.0026276917196810246
6873000000.0 0.002094471827149391 0.0016977915074676275
6874000000.0 0.0027375502977520227 0.00021246413234621286
6875000000.0 0.002305686939507723 -0.0013221325352787971
6876000000.0 0.001351820887066424 -0.002134493552148342
6877000000.0 7.86580058047548e-05 -0.0024416891392320395
6878000000.0 -0.0009852476650848985 -0.001975907711312175
6879000000.0 -0.0017958855023607612 -0.001163629349321127
6880000000.0 -0.0019480854971334338 -0.0001236834068549797
6881000000.0 -0.001678943051956594 0.0007833955460228026
6882000000.0 -0.001015098881907761 0.001399772590957582
6883000000.0 -0.00032421143259853125 0.0016413145931437612
6884000000.0 0.0003572840359993279 0.0014648090582340956
6885000000.0 0.0010009071556851268 0.001051712897606194
6886000000.0 0.0012874879175797105 0.0005169396172277629
6887000000.0 0.0013405036879703403 -0.00016266622697003186
6888000000.0 0.0011932561174035072 -0.0006978803430683911
6889000000.0 0.0005641843308694661 -0.0011675446294248104
6890000000.0 -4.0061971958493814e-05 -0.0012909816578030586
6891000000.0 -0.0004428788961376995 -0.0010486156679689884
6892000000.0 -0.0009844728047028184 -0.0006421382422558963
6893000000.0 -0.0011112189386039972 -0.0003248507564421743
6894000000.0 -0.0010976962512359023 0.00027994264382869005
6895000000.0 -0.0008946019224822521 0.0007519032224081457
6896000000.0 -0.0005441895336844027 0.000947312917560339
6897000000.0 8.852274731907528e-06 0.001128222094848752
6898000000.0 0.00044725238694809377 0.0010137473000213504
6899000000.0 0.000873357814271003 0.0005730915581807494
6900000000.0 0.0009612933499738574 0.00019706611055880785
6901000000.0 0.0010229881154373288 -0.0003138449974358082
6902000000.0 0.0008200122974812984 -0.0006457185372710228
6903000000.0 0.0003422635199967772 -0.0009290328598581254
6904000000.0 -0.00012444649473764002 -0.0009978325106203556
6905000000.0 -0.00046217485214583576 -0.0008079965482465923
6906000000.0 -0.0008482104167342186 -0.0005188300856389105
6907000000.0 -0.001028936356306076 -8.173126843757927e-05
6908000000.0 -0.0009278408833779395 0.0003002550220116973
6909000000.0 -0.0008009093580767512 0.0007622769335284829
6910000000.0 -0.0004234223160892725 0.0010187195148319006
6911000000.0 -5.001998488296522e-06 0.0010036271996796131
6912000000.0 0.0006280086236074567 0.0009420349379070103
6913000000.0 0.0009415168897248805 0.0006057029822841287
6914000000.0 0.0010776147246360779 0.00011516683298395947
6915000000.0 0.0010374989360570908 -0.0003768747264984995
6916000000.0 0.0008416964556090534 -0.0008921073167584836
6917000000.0 0.00041804148349910975 -0.0012272228486835957
6918000000.0 -0.00014881840615998954 -0.0012465311447158456
6919000000.0 -0.0007453467114828527 -0.0011357276234775782
6920000000.0 -0.0012190255802124739 -0.0006531457183882594
6921000000.0 -0.0014478735392913222 1.6996305930661038e-05
6922000000.0 -0.0013173111947253346 0.0007427546661347151
6923000000.0 -0.0009214613237418234 0.0013189474120736122
6924000000.0 -0.0002451374602969736 0.0016708527691662312
6925000000.0 0.0005273740389384329 0.0016461448976770043
6926000000.0 0.0013593866024166346 0.0011960462434217334
6927000000.0 0.002032315591350198 0.0004832881095353514
6928000000.0 0.00213729590177536 -0.0006528664380311966
6929000000.0 0.0016734148375689983 -0.0017361247446388006
6930000000.0 0.0005226809298619628 -0.002552072051912546
6931000000.0 -0.0009779691463336349 -0.0024423145223408937
6932000000.0 -0.002426429884508252 -0.0015607470413669944
6933000000.0 -0.0029038351494818926 -0.00011552761134225875
6934000000.0 -0.002535127103328705 0.001624668831937015
6935000000.0 -0.0011106479214504361 0.002634625183418393
6936000000.0 0.0005182054010219872 0.0026992352213710546
6937000000.0 0.0017156952526420355 0.0018868135521188378
6938000000.0 0.0022919368930161 0.0006960997707210481
6939000000.0 0.0021827996242791414 -0.0006173738511279225
6940000000.0 0.0014520679833367467 -0.0015279814833775163
6941000000.0 0.0005720991175621748 -0.00191357615403831
6942000000.0 -0.00039087748154997826 -0.0018044783500954509
6943000000.0 -0.001162829459644854 -0.0012956709833815694
6944000000.0 -0.0015801434637978673 -0.0006139257457107306
6945000000.0 -0.001591729000210762 0.0001636650413274765
6946000000.0 -0.0012300016824156046 0.0008065019501373172
6947000000.0 -0.0007021237397566438 0.0013243029825389385
6948000000.0 -9.742565453052521e-05 0.0013545744586735964
6949000000.0 0.0005674439016729593 0.0012375202495604753
6950000000.0 0.0010039766784757376 0.0007763871690258384
6951000000.0 0.0012431172654032707 0.00034678110387176275
6952000000.0 0.0011983781587332487 -0.0003310249012429267
6953000000.0 0.0008676970610395074 -0.0007979394285939634
6954000000.0 0.0004782006435561925 -0.0010219792602583766
6955000000.0 3.559221659088507e-05 -0.0011116244131699204
6956000000.0 -0.0005074843647889793 -0.0009208549163304269
6957000000.0 -0.0009222516091540456 -0.0006539548048749566
6958000000.0 -0.0010354017140343785 -0.00023316324222832918
6959000000.0 -0.0009936719434335828 0.00023846040130592883
6960000000.0 -0.0006994652794674039 0.0006786854355596006
6961000000.0 -0.0004054613527841866 0.0009481724700890481
6962000000.0 0.00011286460357951 0.0010299737332388759
6963000000.0 0.0005345761892385781 0.0008777816547080874
6964000000.0 0.0008806182886473835 0.0006305687711574137
6965000000.0 0.0011346886167302728 6.580891931662336e-05
6966000000.0 0.00105463364161551 -0.00042937847319990396
6967000000.0 0.0007569822482764721 -0.0007490376010537148
6968000000.0 0.0002986998006235808 -0.001145248650573194
6969000000.0 -0.0002553701342549175 -0.001176377641968429
6970000000.0 -0.0006873250240460038 -0.0009174864389933646
6971000000.0 -0.0009989954996854067 -0.000526467920280993
6972000000.0 -0.0011997147230431437 0.00014139534323476255
6973000000.0 -0.0010203073034062982 0.000607636640779674
6974000000.0 -0.0006722052348777652 0.0010844108182936907
6975000000.0 -6.776212831027806e-05 0.0012678923085331917
6976000000.0 0.0005450358148664236 0.0011825424153357744
6977000000.0 0.0009928320068866014 0.000807001895736903
6978000000.0 0.001228511449880898 0.00012947278446517885
6979000000.0 0.0011777675244957209 -0.0004877180326730013
6980000000.0 0.0008391652372665703 -0.0011128878686577082
6981000000.0 0.00017444913100916892 -0.0013287068577483296
6982000000.0 -0.0003514042473398149 -0.0012103344779461622
6983000000.0 -0.0009263434330932796 -0.0009135664440691471
6984000000.0 -0.0013649218017235398 -0.0003481939493212849
6985000000.0 -0.0011399992508813739 0.00032447781995870173
6986000000.0 -0.0009507868671789765 0.0009373031789436936
6987000000.0 -0.00039281760109588504 0.001178925158455968
6988000000.0 0.00024146521172951907 0.001193035626783967
6989000000.0 0.0007957180496305227 0.0009213362936861813
6990000000.0 0.0010925510432571173 0.00041317485738545656
6991000000.0 0.0011331342393532395 -0.00019090458226855844
6992000000.0 0.0008352852892130613 -0.0006366721354424953
6993000000.0 0.0004708755004685372 -0.0009613899164833128
6994000000.0 -2.2341986550600268e-05 -0.0009725199197418988
6995000000.0 -0.000503815186675638 -0.0009126720251515508
6996000000.0 -0.0008564562303945422 -0.0006427195621654391
6997000000.0 -0.0009816221427172422 -0.00016401757602579892
6998000000.0 -0.00102075538598001 0.00034661864629015326
6999000000.0 -0.0007744664908386767 0.0006888515781611204
7000000000.0 -0.00036154131521470845 0.000937485252507031
